*SPEF "ieee 1481-1999"
*DESIGN "andig_clock"
*DATE "02:22:24 Monday August 17, 2026"
*VENDOR "The OpenROAD Project"
*PROGRAM "OpenROAD"
*VERSION "26Q1-1024-gdcf36133a"
*DESIGN_FLOW "NAME_SCOPE LOCAL" "PIN_CAP NONE"
*DIVIDER /
*DELIMITER :
*BUS_DELIMITER []
*T_UNIT 1 NS
*C_UNIT 1 PF
*R_UNIT 1 OHM
*L_UNIT 1 HENRY

*NAME_MAP
*3 in_clk
*4 out_clk1
*5 out_clk2
*6 out_clk2B
*7 out_clk_cic
*8 rst
*9 _00_
*10 _01_
*11 _02_
*12 _03_
*13 _04_
*14 _05_
*15 _06_
*16 _07_
*17 _08_
*18 _09_
*19 _10_
*20 _11_
*21 _12_
*22 _13_
*23 _14_
*24 clknet_0_in_clk
*25 clknet_1_0__leaf_in_clk
*26 clknet_1_1__leaf_in_clk
*27 counter\[0\]
*28 counter\[1\]
*29 counter\[2\]
*30 net1
*31 net2
*32 net3
*33 net4
*34 net5
*35 FILLER_0_104
*36 FILLER_0_138
*37 FILLER_0_146
*38 FILLER_0_150
*39 FILLER_0_2
*40 FILLER_0_36
*41 FILLER_0_70
*42 FILLER_10_115
*43 FILLER_10_140
*44 FILLER_10_148
*45 FILLER_10_2
*46 FILLER_10_34
*47 FILLER_10_37
*48 FILLER_10_53
*49 FILLER_10_61
*50 FILLER_10_99
*51 FILLER_11_104
*52 FILLER_11_122
*53 FILLER_11_146
*54 FILLER_11_150
*55 FILLER_11_2
*56 FILLER_11_66
*57 FILLER_11_72
*58 FILLER_12_101
*59 FILLER_12_107
*60 FILLER_12_115
*61 FILLER_12_117
*62 FILLER_12_2
*63 FILLER_12_34
*64 FILLER_12_37
*65 FILLER_13_136
*66 FILLER_13_142
*67 FILLER_13_150
*68 FILLER_13_2
*69 FILLER_13_66
*70 FILLER_13_72
*71 FILLER_14_101
*72 FILLER_14_107
*73 FILLER_14_123
*74 FILLER_14_131
*75 FILLER_14_135
*76 FILLER_14_2
*77 FILLER_14_34
*78 FILLER_14_37
*79 FILLER_15_136
*80 FILLER_15_142
*81 FILLER_15_150
*82 FILLER_15_2
*83 FILLER_15_66
*84 FILLER_15_72
*85 FILLER_16_104
*86 FILLER_16_138
*87 FILLER_16_146
*88 FILLER_16_150
*89 FILLER_16_2
*90 FILLER_16_36
*91 FILLER_16_70
*92 FILLER_1_136
*93 FILLER_1_142
*94 FILLER_1_150
*95 FILLER_1_2
*96 FILLER_1_66
*97 FILLER_1_72
*98 FILLER_2_101
*99 FILLER_2_107
*100 FILLER_2_139
*101 FILLER_2_147
*102 FILLER_2_151
*103 FILLER_2_2
*104 FILLER_2_34
*105 FILLER_2_37
*106 FILLER_3_136
*107 FILLER_3_142
*108 FILLER_3_150
*109 FILLER_3_2
*110 FILLER_3_66
*111 FILLER_3_72
*112 FILLER_4_102
*113 FILLER_4_104
*114 FILLER_4_107
*115 FILLER_4_115
*116 FILLER_4_2
*117 FILLER_4_34
*118 FILLER_4_37
*119 FILLER_4_53
*120 FILLER_4_55
*121 FILLER_4_90
*122 FILLER_4_98
*123 FILLER_5_130
*124 FILLER_5_138
*125 FILLER_5_142
*126 FILLER_5_150
*127 FILLER_5_2
*128 FILLER_5_66
*129 FILLER_5_72
*130 FILLER_6_107
*131 FILLER_6_115
*132 FILLER_6_119
*133 FILLER_6_2
*134 FILLER_6_34
*135 FILLER_6_37
*136 FILLER_6_53
*137 FILLER_7_139
*138 FILLER_7_146
*139 FILLER_7_150
*140 FILLER_7_2
*141 FILLER_7_34
*142 FILLER_7_50
*143 FILLER_7_58
*144 FILLER_7_78
*145 FILLER_7_86
*146 FILLER_7_88
*147 FILLER_8_107
*148 FILLER_8_109
*149 FILLER_8_2
*150 FILLER_8_34
*151 FILLER_8_37
*152 FILLER_8_53
*153 FILLER_8_61
*154 FILLER_8_85
*155 FILLER_9_142
*156 FILLER_9_150
*157 FILLER_9_2
*158 FILLER_9_66
*159 FILLER_9_80
*160 FILLER_9_88
*161 PHY_EDGE_ROW_0_Left_17
*162 PHY_EDGE_ROW_0_Right_0
*163 PHY_EDGE_ROW_10_Left_27
*164 PHY_EDGE_ROW_10_Right_10
*165 PHY_EDGE_ROW_11_Left_28
*166 PHY_EDGE_ROW_11_Right_11
*167 PHY_EDGE_ROW_12_Left_29
*168 PHY_EDGE_ROW_12_Right_12
*169 PHY_EDGE_ROW_13_Left_30
*170 PHY_EDGE_ROW_13_Right_13
*171 PHY_EDGE_ROW_14_Left_31
*172 PHY_EDGE_ROW_14_Right_14
*173 PHY_EDGE_ROW_15_Left_32
*174 PHY_EDGE_ROW_15_Right_15
*175 PHY_EDGE_ROW_16_Left_33
*176 PHY_EDGE_ROW_16_Right_16
*177 PHY_EDGE_ROW_1_Left_18
*178 PHY_EDGE_ROW_1_Right_1
*179 PHY_EDGE_ROW_2_Left_19
*180 PHY_EDGE_ROW_2_Right_2
*181 PHY_EDGE_ROW_3_Left_20
*182 PHY_EDGE_ROW_3_Right_3
*183 PHY_EDGE_ROW_4_Left_21
*184 PHY_EDGE_ROW_4_Right_4
*185 PHY_EDGE_ROW_5_Left_22
*186 PHY_EDGE_ROW_5_Right_5
*187 PHY_EDGE_ROW_6_Left_23
*188 PHY_EDGE_ROW_6_Right_6
*189 PHY_EDGE_ROW_7_Left_24
*190 PHY_EDGE_ROW_7_Right_7
*191 PHY_EDGE_ROW_8_Left_25
*192 PHY_EDGE_ROW_8_Right_8
*193 PHY_EDGE_ROW_9_Left_26
*194 PHY_EDGE_ROW_9_Right_9
*195 TAP_TAPCELL_ROW_0_34
*196 TAP_TAPCELL_ROW_0_35
*197 TAP_TAPCELL_ROW_0_36
*198 TAP_TAPCELL_ROW_0_37
*199 TAP_TAPCELL_ROW_10_56
*200 TAP_TAPCELL_ROW_10_57
*201 TAP_TAPCELL_ROW_11_58
*202 TAP_TAPCELL_ROW_11_59
*203 TAP_TAPCELL_ROW_12_60
*204 TAP_TAPCELL_ROW_12_61
*205 TAP_TAPCELL_ROW_13_62
*206 TAP_TAPCELL_ROW_13_63
*207 TAP_TAPCELL_ROW_14_64
*208 TAP_TAPCELL_ROW_14_65
*209 TAP_TAPCELL_ROW_15_66
*210 TAP_TAPCELL_ROW_15_67
*211 TAP_TAPCELL_ROW_16_68
*212 TAP_TAPCELL_ROW_16_69
*213 TAP_TAPCELL_ROW_16_70
*214 TAP_TAPCELL_ROW_16_71
*215 TAP_TAPCELL_ROW_1_38
*216 TAP_TAPCELL_ROW_1_39
*217 TAP_TAPCELL_ROW_2_40
*218 TAP_TAPCELL_ROW_2_41
*219 TAP_TAPCELL_ROW_3_42
*220 TAP_TAPCELL_ROW_3_43
*221 TAP_TAPCELL_ROW_4_44
*222 TAP_TAPCELL_ROW_4_45
*223 TAP_TAPCELL_ROW_5_46
*224 TAP_TAPCELL_ROW_5_47
*225 TAP_TAPCELL_ROW_6_48
*226 TAP_TAPCELL_ROW_6_49
*227 TAP_TAPCELL_ROW_7_50
*228 TAP_TAPCELL_ROW_7_51
*229 TAP_TAPCELL_ROW_8_52
*230 TAP_TAPCELL_ROW_8_53
*231 TAP_TAPCELL_ROW_9_54
*232 TAP_TAPCELL_ROW_9_55
*233 _15_
*234 _16_
*235 _17_
*236 _18_
*237 _19_
*238 _20_
*239 _21_
*240 _22_
*241 _23_
*242 _24_
*243 _25_
*244 _26_
*245 _27_
*246 _28_
*247 _29_
*248 _30_
*249 _31_
*250 _32_
*251 _33_
*252 _34_
*253 _35_
*254 _36_
*255 clkbuf_0_in_clk
*256 clkbuf_1_0__f_in_clk
*257 clkbuf_1_1__f_in_clk
*258 clkload0
*259 input1
*260 output2
*261 output3
*262 output4
*263 output5

*PORTS
in_clk I
out_clk1 O
out_clk2 O
out_clk2B O
out_clk_cic O
rst I

*D_NET *3 0.00636857
*CONN
*P in_clk I
*I *255:I I *D gf180mcu_fd_sc_mcu7t5v0__clkbuf_16
*CAP
1 in_clk 0.00292437
2 *255:I 0.00292437
3 *255:I *246:A1 0
4 *255:I *252:RN 0.000519829
5 *255:I *256:I 0
6 *255:I *257:I 0
7 *255:I *27:12 0
8 *255:I *29:34 0
*RES
1 in_clk *255:I 29.634 
*END

*D_NET *4 0.00215727
*CONN
*P out_clk1 O
*I *260:Z O *D gf180mcu_fd_sc_mcu7t5v0__dlyb_1
*CAP
1 out_clk1 0.000655946
2 *260:Z 0.000655946
3 out_clk1 *259:I 0.000536972
4 out_clk1 *260:I 0
5 out_clk1 *30:6 9.29208e-05
6 out_clk1 *30:12 0.00021548
*RES
1 *260:Z out_clk1 14.8249 
*END

*D_NET *5 0.00182216
*CONN
*P out_clk2 O
*I *261:Z O *D gf180mcu_fd_sc_mcu7t5v0__dlyb_1
*CAP
1 out_clk2 0.000628607
2 *261:Z 0.000628607
3 out_clk2 out_clk2B 0.000230669
4 out_clk2 *247:B1 0.000161264
5 out_clk2 *250:RN 0
6 out_clk2 *261:I 2.2499e-05
7 out_clk2 *262:I 1.039e-05
8 out_clk2 *32:10 0.000140124
*RES
1 *261:Z out_clk2 14.0649 
*END

*D_NET *6 0.00208663
*CONN
*P out_clk2B O
*I *262:Z O *D gf180mcu_fd_sc_mcu7t5v0__dlyb_1
*CAP
1 out_clk2B 0.000739986
2 *262:Z 0.000739986
3 out_clk2B *250:RN 4.05841e-05
4 out_clk2B *262:I 0
5 out_clk2B *32:10 0.000335407
6 out_clk2 out_clk2B 0.000230669
*RES
1 *262:Z out_clk2B 14.8249 
*END

*D_NET *7 0.00256134
*CONN
*P out_clk_cic O
*I *263:Z O *D gf180mcu_fd_sc_mcu7t5v0__dlyb_1
*CAP
1 out_clk_cic 0.000792511
2 *263:Z 0.000792511
3 out_clk_cic *248:A1 0.000118985
4 out_clk_cic *250:RN 0
5 out_clk_cic *263:I 0.000333372
6 out_clk_cic *34:8 0.000523959
*RES
1 *263:Z out_clk_cic 15.1289 
*END

*D_NET *8 0.00106387
*CONN
*P rst I
*I *259:I I *D gf180mcu_fd_sc_mcu7t5v0__dlyb_1
*CAP
1 rst 0.00026345
2 *259:I 0.00026345
3 out_clk1 *259:I 0.000536972
*RES
1 rst *259:I 11.9369 
*END

*D_NET *9 0.000452324
*CONN
*I *252:D I *D gf180mcu_fd_sc_mcu7t5v0__dffrnq_1
*I *237:ZN O *D gf180mcu_fd_sc_mcu7t5v0__aoi21_1
*CAP
1 *252:D 0.000200846
2 *237:ZN 0.000200846
3 *252:D *237:A1 1.5015e-05
4 *252:D *243:S 0
5 *252:D *29:34 3.56172e-05
*RES
1 *237:ZN *252:D 10.368 
*END

*D_NET *10 0.000531841
*CONN
*I *253:D I *D gf180mcu_fd_sc_mcu7t5v0__dffrnq_1
*I *242:ZN O *D gf180mcu_fd_sc_mcu7t5v0__nor3_1
*CAP
1 *253:D 0.00019152
2 *242:ZN 0.00019152
3 *253:D *253:CLK 5.76373e-06
4 *253:D *254:RN 1.06063e-05
5 *253:D *29:8 0.000132431
6 *253:D *29:19 0
*RES
1 *242:ZN *253:D 10.52 
*END

*D_NET *11 0.00254399
*CONN
*I *254:D I *D gf180mcu_fd_sc_mcu7t5v0__dffrnq_1
*I *243:Z O *D gf180mcu_fd_sc_mcu7t5v0__mux2_2
*CAP
1 *254:D 0.000645814
2 *243:Z 0.000645814
3 *254:D *242:A3 0
4 *254:D *243:I1 6.14386e-05
5 *254:D *252:CLK 5.48085e-05
6 *254:D *254:CLK 0.000937466
7 *254:D *25:19 0.000198651
*RES
1 *243:Z *254:D 14.928 
*END

*D_NET *12 0.000800521
*CONN
*I *249:D I *D gf180mcu_fd_sc_mcu7t5v0__dffsnq_1
*I *245:ZN O *D gf180mcu_fd_sc_mcu7t5v0__oai21_1
*CAP
1 *249:D 0.000287169
2 *245:ZN 0.000287169
3 *249:D *249:CLK 0.000226183
4 *249:D *31:12 0
*RES
1 *245:ZN *249:D 11.356 
*END

*D_NET *13 0.000672618
*CONN
*I *250:D I *D gf180mcu_fd_sc_mcu7t5v0__dffrnq_1
*I *247:ZN O *D gf180mcu_fd_sc_mcu7t5v0__aoi22_1
*CAP
1 *250:D 0.000232619
2 *247:ZN 0.000232619
3 *250:D *247:B1 6.54913e-05
4 *250:D *250:CLK 0.000141888
*RES
1 *247:ZN *250:D 19.824 
*END

*D_NET *14 0.00104111
*CONN
*I *251:D I *D gf180mcu_fd_sc_mcu7t5v0__dffrnq_1
*I *248:ZN O *D gf180mcu_fd_sc_mcu7t5v0__aoi21_1
*CAP
1 *251:D 0.000249756
2 *248:ZN 0.000249756
3 *251:D *247:B2 0
4 *251:D *250:CLK 0.00026286
5 *251:D *263:I 1.81888e-05
6 *251:D *26:6 0.000260548
*RES
1 *248:ZN *251:D 11.356 
*END

*D_NET *15 0.000967144
*CONN
*I *246:A1 I *D gf180mcu_fd_sc_mcu7t5v0__nand2_1
*I *233:ZN O *D gf180mcu_fd_sc_mcu7t5v0__clkinv_1
*CAP
1 *246:A1 0.000118129
2 *233:ZN 0.000118129
3 *246:A1 *233:I 7.32209e-05
4 *246:A1 *257:I 0.000128436
5 *246:A1 *27:12 0.000529228
6 *255:I *246:A1 0
*RES
1 *233:ZN *246:A1 10.596 
*END

*D_NET *16 0.00280446
*CONN
*I *248:A1 I *D gf180mcu_fd_sc_mcu7t5v0__aoi21_1
*I *235:ZN O *D gf180mcu_fd_sc_mcu7t5v0__clkinv_1
*CAP
1 *248:A1 0.000865845
2 *235:ZN 0.000865845
3 *248:A1 *235:I 0.00050833
4 *248:A1 *247:B1 0
5 *248:A1 *250:RN 0.000173597
6 *248:A1 *261:I 0
7 *248:A1 *17:10 0.000213194
8 *248:A1 *30:68 5.8669e-05
9 out_clk_cic *248:A1 0.000118985
*RES
1 *235:ZN *248:A1 25.068 
*END

*D_NET *17 0.00126794
*CONN
*I *248:A2 I *D gf180mcu_fd_sc_mcu7t5v0__aoi21_1
*I *247:B2 I *D gf180mcu_fd_sc_mcu7t5v0__aoi22_1
*I *236:Z O *D gf180mcu_fd_sc_mcu7t5v0__and2_1
*CAP
1 *248:A2 0
2 *247:B2 0.000181913
3 *236:Z 0.000219113
4 *17:10 0.000401027
5 *247:B2 *250:CLK 0.000252698
6 *17:10 *247:A2 0
7 *17:10 *247:B1 0
8 *248:A1 *17:10 0.000213194
9 *251:D *247:B2 0
*RES
1 *236:Z *17:10 14.944 
2 *17:10 *247:B2 6.096 
3 *17:10 *248:A2 4.5 
*END

*D_NET *18 0.00185689
*CONN
*I *242:A2 I *D gf180mcu_fd_sc_mcu7t5v0__nor3_1
*I *243:I0 I *D gf180mcu_fd_sc_mcu7t5v0__mux2_2
*I *238:Z O *D gf180mcu_fd_sc_mcu7t5v0__and2_1
*CAP
1 *242:A2 0.000223093
2 *243:I0 9.11942e-05
3 *238:Z 3.28034e-05
4 *18:6 0.000347091
5 *242:A2 *242:A3 0.000293182
6 *242:A2 *243:I1 2.4397e-05
7 *242:A2 *29:19 0.000804514
8 *243:I0 *243:I1 1.88287e-05
9 *243:I0 *243:S 1.02578e-05
10 *243:I0 *29:19 1.15275e-05
*RES
1 *238:Z *18:6 4.728 
2 *18:6 *243:I0 5.26 
3 *18:6 *242:A2 7.692 
*END

*D_NET *19 0.000196821
*CONN
*I *247:A1 I *D gf180mcu_fd_sc_mcu7t5v0__aoi22_1
*I *239:ZN O *D gf180mcu_fd_sc_mcu7t5v0__nand2_1
*CAP
1 *247:A1 9.84103e-05
2 *239:ZN 9.84103e-05
3 *247:A1 *248:B 0
*RES
1 *239:ZN *247:A1 9.684 
*END

*D_NET *20 0.000866725
*CONN
*I *248:B I *D gf180mcu_fd_sc_mcu7t5v0__aoi21_1
*I *240:ZN O *D gf180mcu_fd_sc_mcu7t5v0__aoi21_1
*CAP
1 *248:B 0.000263914
2 *240:ZN 0.000263914
3 *248:B *240:A1 5.23993e-05
4 *248:B *250:CLK 4.71447e-05
5 *248:B *26:6 5.67567e-05
6 *248:B *28:37 8.55242e-05
7 *248:B *28:74 9.7072e-05
8 *247:A1 *248:B 0
*RES
1 *240:ZN *248:B 11.28 
*END

*D_NET *21 0.00171304
*CONN
*I *243:I1 I *D gf180mcu_fd_sc_mcu7t5v0__mux2_2
*I *242:A3 I *D gf180mcu_fd_sc_mcu7t5v0__nor3_1
*I *241:ZN O *D gf180mcu_fd_sc_mcu7t5v0__nor2_1
*CAP
1 *243:I1 0.000339574
2 *242:A3 0.000300475
3 *241:ZN 0
4 *21:4 0.00064005
5 *243:I1 *243:S 1.20425e-05
6 *243:I1 *252:CLK 2.30549e-05
7 *242:A2 *242:A3 0.000293182
8 *242:A2 *243:I1 2.4397e-05
9 *243:I0 *243:I1 1.88287e-05
10 *254:D *242:A3 0
11 *254:D *243:I1 6.14386e-05
*RES
1 *241:ZN *21:4 4.5 
2 *21:4 *242:A3 7.008 
3 *21:4 *243:I1 6.628 
*END

*D_NET *22 0.000110832
*CONN
*I *245:B I *D gf180mcu_fd_sc_mcu7t5v0__oai21_1
*I *244:ZN O *D gf180mcu_fd_sc_mcu7t5v0__nand3_1
*CAP
1 *245:B 5.5416e-05
2 *244:ZN 5.5416e-05
*RES
1 *244:ZN *245:B 9.38 
*END

*D_NET *23 0.00107734
*CONN
*I *247:A2 I *D gf180mcu_fd_sc_mcu7t5v0__aoi22_1
*I *246:ZN O *D gf180mcu_fd_sc_mcu7t5v0__nand2_1
*CAP
1 *247:A2 0.00039881
2 *246:ZN 0.00039881
3 *247:A2 *236:A1 7.24161e-06
4 *247:A2 *239:A1 6.84221e-05
5 *247:A2 *239:A2 5.67505e-05
6 *247:A2 *27:12 0.000147305
7 *17:10 *247:A2 0
*RES
1 *246:ZN *247:A2 20.736 
*END

*D_NET *24 0.00161378
*CONN
*I *256:I I *D gf180mcu_fd_sc_mcu7t5v0__clkbuf_16
*I *257:I I *D gf180mcu_fd_sc_mcu7t5v0__clkbuf_16
*I *255:Z O *D gf180mcu_fd_sc_mcu7t5v0__clkbuf_16
*CAP
1 *256:I 0.000214063
2 *257:I 0.000398449
3 *255:Z 0.000121483
4 *24:9 0.000733995
5 *256:I *29:55 0
6 *257:I *233:I 1.73565e-05
7 *257:I *28:39 0
8 *257:I *29:49 0
9 *24:9 *28:39 0
10 *246:A1 *257:I 0.000128436
11 *255:I *256:I 0
12 *255:I *257:I 0
*RES
1 *255:Z *24:9 9.836 
2 *24:9 *257:I 11.584 
3 *24:9 *256:I 10.292 
*END

*D_NET *25 0.00368215
*CONN
*I *253:CLK I *D gf180mcu_fd_sc_mcu7t5v0__dffrnq_1
*I *252:CLK I *D gf180mcu_fd_sc_mcu7t5v0__dffrnq_1
*I *258:I I *D gf180mcu_fd_sc_mcu7t5v0__clkbuf_2
*I *254:CLK I *D gf180mcu_fd_sc_mcu7t5v0__dffrnq_1
*I *256:Z O *D gf180mcu_fd_sc_mcu7t5v0__clkbuf_16
*CAP
1 *253:CLK 0.000118202
2 *252:CLK 0.000523931
3 *258:I 0
4 *254:CLK 0.00038522
5 *256:Z 0.000118202
6 *25:19 0.000669601
7 *25:4 0.00053089
8 *252:CLK *237:A2 0
9 *252:CLK *243:S 0
10 *253:CLK *29:19 0.000116355
11 *243:I1 *252:CLK 2.30549e-05
12 *253:D *253:CLK 5.76373e-06
13 *254:D *252:CLK 5.48085e-05
14 *254:D *254:CLK 0.000937466
15 *254:D *25:19 0.000198651
*RES
1 *256:Z *25:4 4.5 
2 *25:4 *254:CLK 16.692 
3 *25:4 *25:19 1.292 
4 *25:19 *258:I 4.5 
5 *25:19 *252:CLK 7.844 
6 *256:Z *253:CLK 9.988 
*END

*D_NET *26 0.00386696
*CONN
*I *250:CLK I *D gf180mcu_fd_sc_mcu7t5v0__dffrnq_1
*I *251:CLK I *D gf180mcu_fd_sc_mcu7t5v0__dffrnq_1
*I *249:CLK I *D gf180mcu_fd_sc_mcu7t5v0__dffsnq_1
*I *257:Z O *D gf180mcu_fd_sc_mcu7t5v0__clkbuf_16
*CAP
1 *250:CLK 0.000389495
2 *251:CLK 0
3 *249:CLK 0.00062343
4 *257:Z 0
5 *26:6 0.000729771
6 *26:4 0.000495835
7 *249:CLK *244:A2 1.3758e-05
8 *249:CLK *260:I 0
9 *249:CLK *28:26 0.000313304
10 *249:CLK *28:37 3.07734e-05
11 *249:CLK *31:12 0
12 *250:CLK *239:A1 0
13 *250:CLK *239:A2 0
14 *250:CLK *263:I 0
15 *250:CLK *28:74 0
16 *26:6 *28:37 2.25107e-05
17 *247:B2 *250:CLK 0.000252698
18 *248:B *250:CLK 4.71447e-05
19 *248:B *26:6 5.67567e-05
20 *249:D *249:CLK 0.000226183
21 *250:D *250:CLK 0.000141888
22 *251:D *250:CLK 0.00026286
23 *251:D *26:6 0.000260548
*RES
1 *257:Z *26:4 4.5 
2 *26:4 *26:6 1.292 
3 *26:6 *249:CLK 9.288 
4 *26:6 *251:CLK 4.5 
5 *26:4 *250:CLK 7.92 
*END

*D_NET *27 0.00786893
*CONN
*I *239:A1 I *D gf180mcu_fd_sc_mcu7t5v0__nand2_1
*I *240:A1 I *D gf180mcu_fd_sc_mcu7t5v0__aoi21_1
*I *238:A1 I *D gf180mcu_fd_sc_mcu7t5v0__and2_1
*I *241:A1 I *D gf180mcu_fd_sc_mcu7t5v0__nor2_1
*I *237:B I *D gf180mcu_fd_sc_mcu7t5v0__aoi21_1
*I *233:I I *D gf180mcu_fd_sc_mcu7t5v0__clkinv_1
*I *252:Q O *D gf180mcu_fd_sc_mcu7t5v0__dffrnq_1
*CAP
1 *239:A1 0.000253507
2 *240:A1 0.000220006
3 *238:A1 0
4 *241:A1 0.000292044
5 *237:B 0.000135374
6 *233:I 4.78575e-05
7 *252:Q 7.98018e-05
8 *27:38 0.000357578
9 *27:23 0.000507271
10 *27:21 0.000526369
11 *27:12 0.000219553
12 *27:8 0.000505004
13 *233:I *29:49 1.37014e-05
14 *237:B *237:A2 0.000206333
15 *237:B *243:S 5.47552e-05
16 *237:B *28:39 0.000145096
17 *237:B *29:19 0.000258197
18 *237:B *29:34 0
19 *239:A1 *239:A2 0.000310356
20 *239:A1 *29:45 0.000102094
21 *240:A1 *28:37 0.000229135
22 *240:A1 *28:39 0.000426387
23 *240:A1 *28:74 1.08231e-05
24 *240:A1 *29:45 0
25 *240:A1 *29:49 1.53689e-05
26 *240:A1 *29:55 3.08902e-05
27 *241:A1 *237:A2 0
28 *241:A1 *241:A2 0.000559692
29 *241:A1 *252:RN 0
30 *241:A1 *28:39 0
31 *27:8 *29:34 7.87465e-05
32 *27:8 *29:45 4.84399e-05
33 *27:12 *236:A1 3.84832e-06
34 *27:12 *29:49 9.21191e-05
35 *27:23 *28:39 0.00122477
36 *27:23 *29:34 0
37 *27:23 *29:45 0
38 *27:38 *241:A2 2.23385e-05
39 *27:38 *252:RN 0
40 *27:38 *29:19 3.54253e-06
41 *246:A1 *233:I 7.32209e-05
42 *246:A1 *27:12 0.000529228
43 *247:A2 *239:A1 6.84221e-05
44 *247:A2 *27:12 0.000147305
45 *248:B *240:A1 5.23993e-05
46 *250:CLK *239:A1 0
47 *255:I *27:12 0
48 *257:I *233:I 1.73565e-05
*RES
1 *252:Q *27:8 9.836 
2 *27:8 *27:12 6.552 
3 *27:12 *233:I 4.88 
4 *27:12 *27:21 4.5 
5 *27:21 *27:23 3.116 
6 *27:23 *237:B 10.52 
7 *27:23 *27:38 4.88 
8 *27:38 *241:A1 15.78 
9 *27:38 *238:A1 4.5 
10 *27:21 *240:A1 11.128 
11 *27:8 *239:A1 11.128 
*END

*D_NET *28 0.00919601
*CONN
*I *236:A2 I *D gf180mcu_fd_sc_mcu7t5v0__and2_1
*I *239:A2 I *D gf180mcu_fd_sc_mcu7t5v0__nand2_1
*I *238:A2 I *D gf180mcu_fd_sc_mcu7t5v0__and2_1
*I *241:A2 I *D gf180mcu_fd_sc_mcu7t5v0__nor2_1
*I *237:A2 I *D gf180mcu_fd_sc_mcu7t5v0__aoi21_1
*I *240:A2 I *D gf180mcu_fd_sc_mcu7t5v0__aoi21_1
*I *244:A2 I *D gf180mcu_fd_sc_mcu7t5v0__nand3_1
*I *245:A2 I *D gf180mcu_fd_sc_mcu7t5v0__oai21_1
*I *253:Q O *D gf180mcu_fd_sc_mcu7t5v0__dffrnq_1
*CAP
1 *236:A2 0
2 *239:A2 0.000135811
3 *238:A2 0
4 *241:A2 0.000247761
5 *237:A2 0.000295811
6 *240:A2 0
7 *244:A2 0.000193884
8 *245:A2 0
9 *253:Q 5.46724e-05
10 *28:74 0.000322027
11 *28:52 0.000247761
12 *28:39 0.000690777
13 *28:37 0.000768725
14 *28:26 0.000454431
15 *28:6 0.000515445
16 *237:A2 *243:S 0.000141897
17 *239:A2 *236:A1 3.08902e-05
18 *241:A2 *29:19 0.00021404
19 *244:A2 *244:A1 0.000372003
20 *244:A2 *29:55 0.000154895
21 *244:A2 *30:12 6.38438e-05
22 *28:26 *29:55 0.000217071
23 *28:37 *29:55 7.24161e-06
24 *28:74 *236:A1 2.23477e-05
25 *28:74 *29:49 0.000290047
26 *237:B *237:A2 0.000206333
27 *237:B *28:39 0.000145096
28 *239:A1 *239:A2 0.000310356
29 *240:A1 *28:37 0.000229135
30 *240:A1 *28:39 0.000426387
31 *240:A1 *28:74 1.08231e-05
32 *241:A1 *237:A2 0
33 *241:A1 *241:A2 0.000559692
34 *241:A1 *28:39 0
35 *247:A2 *239:A2 5.67505e-05
36 *248:B *28:37 8.55242e-05
37 *248:B *28:74 9.7072e-05
38 *249:CLK *244:A2 1.3758e-05
39 *249:CLK *28:26 0.000313304
40 *249:CLK *28:37 3.07734e-05
41 *250:CLK *239:A2 0
42 *250:CLK *28:74 0
43 *252:CLK *237:A2 0
44 *257:I *28:39 0
45 *24:9 *28:39 0
46 *26:6 *28:37 2.25107e-05
47 *27:23 *28:39 0.00122477
48 *27:38 *241:A2 2.23385e-05
*RES
1 *253:Q *28:6 4.88 
2 *28:6 *245:A2 4.5 
3 *28:6 *244:A2 15.324 
4 *28:6 *28:26 2.812 
5 *28:26 *240:A2 4.5 
6 *28:26 *28:37 6.02 
7 *28:37 *28:39 4.484 
8 *28:39 *237:A2 11.28 
9 *28:39 *28:52 4.5 
10 *28:52 *241:A2 16.084 
11 *28:52 *238:A2 4.5 
12 *28:37 *28:74 6.4 
13 *28:74 *239:A2 5.868 
14 *28:74 *236:A2 4.5 
*END

*D_NET *29 0.00946189
*CONN
*I *243:S I *D gf180mcu_fd_sc_mcu7t5v0__mux2_2
*I *236:A1 I *D gf180mcu_fd_sc_mcu7t5v0__and2_1
*I *240:B I *D gf180mcu_fd_sc_mcu7t5v0__aoi21_1
*I *244:A1 I *D gf180mcu_fd_sc_mcu7t5v0__nand3_1
*I *245:A1 I *D gf180mcu_fd_sc_mcu7t5v0__oai21_1
*I *246:A2 I *D gf180mcu_fd_sc_mcu7t5v0__nand2_1
*I *237:A1 I *D gf180mcu_fd_sc_mcu7t5v0__aoi21_1
*I *242:A1 I *D gf180mcu_fd_sc_mcu7t5v0__nor3_1
*I *254:Q O *D gf180mcu_fd_sc_mcu7t5v0__dffrnq_1
*CAP
1 *243:S 0.000163466
2 *236:A1 1.4804e-05
3 *240:B 0
4 *244:A1 5.47234e-06
5 *245:A1 0
6 *246:A2 0
7 *237:A1 0.000256156
8 *242:A1 0
9 *254:Q 0.00034037
10 *29:55 0.000508354
11 *29:49 0.000822244
12 *29:45 0.000476749
13 *29:34 0.000788227
14 *29:19 0.0011931
15 *29:8 0.000795136
16 *244:A1 *30:12 0.000403764
17 *29:55 *30:12 0.000396912
18 *233:I *29:49 1.37014e-05
19 *237:A2 *243:S 0.000141897
20 *237:B *243:S 5.47552e-05
21 *237:B *29:19 0.000258197
22 *237:B *29:34 0
23 *239:A1 *29:45 0.000102094
24 *239:A2 *236:A1 3.08902e-05
25 *240:A1 *29:45 0
26 *240:A1 *29:49 1.53689e-05
27 *240:A1 *29:55 3.08902e-05
28 *241:A2 *29:19 0.00021404
29 *242:A2 *29:19 0.000804514
30 *243:I0 *243:S 1.02578e-05
31 *243:I0 *29:19 1.15275e-05
32 *243:I1 *243:S 1.20425e-05
33 *244:A2 *244:A1 0.000372003
34 *244:A2 *29:55 0.000154895
35 *247:A2 *236:A1 7.24161e-06
36 *252:D *237:A1 1.5015e-05
37 *252:D *243:S 0
38 *252:D *29:34 3.56172e-05
39 *252:CLK *243:S 0
40 *253:D *29:8 0.000132431
41 *253:D *29:19 0
42 *253:CLK *29:19 0.000116355
43 *255:I *29:34 0
44 *256:I *29:55 0
45 *257:I *29:49 0
46 *27:8 *29:34 7.87465e-05
47 *27:8 *29:45 4.84399e-05
48 *27:12 *236:A1 3.84832e-06
49 *27:12 *29:49 9.21191e-05
50 *27:23 *29:34 0
51 *27:23 *29:45 0
52 *27:38 *29:19 3.54253e-06
53 *28:26 *29:55 0.000217071
54 *28:37 *29:55 7.24161e-06
55 *28:74 *236:A1 2.23477e-05
56 *28:74 *29:49 0.000290047
*RES
1 *254:Q *29:8 6.78 
2 *29:8 *242:A1 4.5 
3 *29:8 *29:19 5.244 
4 *29:19 *237:A1 5.26 
5 *29:19 *29:34 8.604 
6 *29:34 *246:A2 9 
7 *29:34 *29:45 5.64 
8 *29:45 *29:49 2.736 
9 *29:49 *29:55 8.452 
10 *29:55 *245:A1 9 
11 *29:55 *244:A1 9.988 
12 *29:49 *240:B 4.5 
13 *29:45 *236:A1 4.728 
14 *237:A1 *243:S 10.672 
*END

*D_NET *30 0.0100744
*CONN
*I *250:RN I *D gf180mcu_fd_sc_mcu7t5v0__dffrnq_1
*I *251:RN I *D gf180mcu_fd_sc_mcu7t5v0__dffrnq_1
*I *249:SETN I *D gf180mcu_fd_sc_mcu7t5v0__dffsnq_1
*I *253:RN I *D gf180mcu_fd_sc_mcu7t5v0__dffrnq_1
*I *252:RN I *D gf180mcu_fd_sc_mcu7t5v0__dffrnq_1
*I *254:RN I *D gf180mcu_fd_sc_mcu7t5v0__dffrnq_1
*I *259:Z O *D gf180mcu_fd_sc_mcu7t5v0__dlyb_1
*CAP
1 *250:RN 0.000624834
2 *251:RN 0
3 *249:SETN 0.000440078
4 *253:RN 0
5 *252:RN 0.000711068
6 *254:RN 0.000576077
7 *259:Z 0
8 *30:68 0.00108003
9 *30:16 0.00160799
10 *30:12 0.000985417
11 *30:6 0.00120934
12 *30:4 0.00055989
13 *250:RN *235:I 0.000119761
14 *250:RN *262:I 7.31112e-05
15 *30:68 *263:I 8.59147e-05
16 *30:68 *34:8 2.4706e-05
17 out_clk1 *30:6 9.29208e-05
18 out_clk1 *30:12 0.00021548
19 out_clk2 *250:RN 0
20 out_clk2B *250:RN 4.05841e-05
21 out_clk_cic *250:RN 0
22 *241:A1 *252:RN 0
23 *244:A1 *30:12 0.000403764
24 *244:A2 *30:12 6.38438e-05
25 *248:A1 *250:RN 0.000173597
26 *248:A1 *30:68 5.8669e-05
27 *253:D *254:RN 1.06063e-05
28 *255:I *252:RN 0.000519829
29 *27:38 *252:RN 0
30 *29:55 *30:12 0.000396912
*RES
1 *259:Z *30:4 4.5 
2 *30:4 *30:6 0.836 
3 *30:6 *30:12 9.364 
4 *30:12 *30:16 6.856 
5 *30:16 *254:RN 16.692 
6 *30:16 *252:RN 9.592 
7 *30:12 *253:RN 9 
8 *30:6 *249:SETN 6.78 
9 *30:4 *30:68 12.04 
10 *30:68 *251:RN 4.5 
11 *30:68 *250:RN 8.832 
*END

*D_NET *31 0.00218736
*CONN
*I *244:A3 I *D gf180mcu_fd_sc_mcu7t5v0__nand3_1
*I *260:I I *D gf180mcu_fd_sc_mcu7t5v0__dlyb_1
*I *249:Q O *D gf180mcu_fd_sc_mcu7t5v0__dffsnq_1
*CAP
1 *244:A3 0
2 *260:I 0.000284841
3 *249:Q 0.000808841
4 *31:12 0.00109368
5 out_clk1 *260:I 0
6 *249:D *31:12 0
7 *249:CLK *260:I 0
8 *249:CLK *31:12 0
*RES
1 *249:Q *31:12 18.212 
2 *31:12 *260:I 6.248 
3 *31:12 *244:A3 4.5 
*END

*D_NET *32 0.00216397
*CONN
*I *234:I I *D gf180mcu_fd_sc_mcu7t5v0__clkinv_1
*I *261:I I *D gf180mcu_fd_sc_mcu7t5v0__dlyb_1
*I *250:Q O *D gf180mcu_fd_sc_mcu7t5v0__dffrnq_1
*CAP
1 *234:I 0
2 *261:I 0.000181939
3 *250:Q 0.000195052
4 *32:10 0.000376991
5 *261:I *247:B1 0.000911953
6 out_clk2 *261:I 2.2499e-05
7 out_clk2 *32:10 0.000140124
8 out_clk2B *32:10 0.000335407
9 *248:A1 *261:I 0
*RES
1 *250:Q *32:10 10.824 
2 *32:10 *261:I 11.356 
3 *32:10 *234:I 9 
*END

*D_NET *33 0.00293255
*CONN
*I *262:I I *D gf180mcu_fd_sc_mcu7t5v0__dlyb_1
*I *247:B1 I *D gf180mcu_fd_sc_mcu7t5v0__aoi22_1
*I *234:ZN O *D gf180mcu_fd_sc_mcu7t5v0__clkinv_1
*CAP
1 *262:I 0.000516306
2 *247:B1 0.000338863
3 *234:ZN 0
4 *33:4 0.000855169
5 out_clk2 *247:B1 0.000161264
6 out_clk2 *262:I 1.039e-05
7 out_clk2B *262:I 0
8 *248:A1 *247:B1 0
9 *250:D *247:B1 6.54913e-05
10 *250:RN *262:I 7.31112e-05
11 *261:I *247:B1 0.000911953
12 *17:10 *247:B1 0
*RES
1 *234:ZN *33:4 4.5 
2 *33:4 *247:B1 17.376 
3 *33:4 *262:I 7.692 
*END

*D_NET *34 0.00310583
*CONN
*I *235:I I *D gf180mcu_fd_sc_mcu7t5v0__clkinv_1
*I *263:I I *D gf180mcu_fd_sc_mcu7t5v0__dlyb_1
*I *251:Q O *D gf180mcu_fd_sc_mcu7t5v0__dffrnq_1
*CAP
1 *235:I 0.000115149
2 *263:I 0.000545674
3 *251:Q 8.49744e-05
4 *34:8 0.000745798
5 out_clk_cic *263:I 0.000333372
6 out_clk_cic *34:8 0.000523959
7 *248:A1 *235:I 0.00050833
8 *250:RN *235:I 0.000119761
9 *250:CLK *263:I 0
10 *251:D *263:I 1.81888e-05
11 *30:68 *263:I 8.59147e-05
12 *30:68 *34:8 2.4706e-05
*RES
1 *251:Q *34:8 10.292 
2 *34:8 *263:I 12.952 
3 *34:8 *235:I 10.52 
*END
