*SPEF "ieee 1481-1999"
*DESIGN "andig_clock"
*DATE "02:22:24 Monday August 17, 2026"
*VENDOR "The OpenROAD Project"
*PROGRAM "OpenROAD"
*VERSION "26Q1-1024-gdcf36133a"
*DESIGN_FLOW "NAME_SCOPE LOCAL" "PIN_CAP NONE"
*DIVIDER /
*DELIMITER :
*BUS_DELIMITER []
*T_UNIT 1 NS
*C_UNIT 1 PF
*R_UNIT 1 OHM
*L_UNIT 1 HENRY

*NAME_MAP
*3 in_clk
*4 out_clk1
*5 out_clk2
*6 out_clk2B
*7 out_clk_cic
*8 rst
*9 _00_
*10 _01_
*11 _02_
*12 _03_
*13 _04_
*14 _05_
*15 _06_
*16 _07_
*17 _08_
*18 _09_
*19 _10_
*20 _11_
*21 _12_
*22 _13_
*23 _14_
*24 clknet_0_in_clk
*25 clknet_1_0__leaf_in_clk
*26 clknet_1_1__leaf_in_clk
*27 counter\[0\]
*28 counter\[1\]
*29 counter\[2\]
*30 net1
*31 net2
*32 net3
*33 net4
*34 net5
*35 FILLER_0_104
*36 FILLER_0_138
*37 FILLER_0_146
*38 FILLER_0_150
*39 FILLER_0_2
*40 FILLER_0_36
*41 FILLER_0_70
*42 FILLER_10_115
*43 FILLER_10_140
*44 FILLER_10_148
*45 FILLER_10_2
*46 FILLER_10_34
*47 FILLER_10_37
*48 FILLER_10_53
*49 FILLER_10_61
*50 FILLER_10_99
*51 FILLER_11_104
*52 FILLER_11_122
*53 FILLER_11_146
*54 FILLER_11_150
*55 FILLER_11_2
*56 FILLER_11_66
*57 FILLER_11_72
*58 FILLER_12_101
*59 FILLER_12_107
*60 FILLER_12_115
*61 FILLER_12_117
*62 FILLER_12_2
*63 FILLER_12_34
*64 FILLER_12_37
*65 FILLER_13_136
*66 FILLER_13_142
*67 FILLER_13_150
*68 FILLER_13_2
*69 FILLER_13_66
*70 FILLER_13_72
*71 FILLER_14_101
*72 FILLER_14_107
*73 FILLER_14_123
*74 FILLER_14_131
*75 FILLER_14_135
*76 FILLER_14_2
*77 FILLER_14_34
*78 FILLER_14_37
*79 FILLER_15_136
*80 FILLER_15_142
*81 FILLER_15_150
*82 FILLER_15_2
*83 FILLER_15_66
*84 FILLER_15_72
*85 FILLER_16_104
*86 FILLER_16_138
*87 FILLER_16_146
*88 FILLER_16_150
*89 FILLER_16_2
*90 FILLER_16_36
*91 FILLER_16_70
*92 FILLER_1_136
*93 FILLER_1_142
*94 FILLER_1_150
*95 FILLER_1_2
*96 FILLER_1_66
*97 FILLER_1_72
*98 FILLER_2_101
*99 FILLER_2_107
*100 FILLER_2_139
*101 FILLER_2_147
*102 FILLER_2_151
*103 FILLER_2_2
*104 FILLER_2_34
*105 FILLER_2_37
*106 FILLER_3_136
*107 FILLER_3_142
*108 FILLER_3_150
*109 FILLER_3_2
*110 FILLER_3_66
*111 FILLER_3_72
*112 FILLER_4_102
*113 FILLER_4_104
*114 FILLER_4_107
*115 FILLER_4_115
*116 FILLER_4_2
*117 FILLER_4_34
*118 FILLER_4_37
*119 FILLER_4_53
*120 FILLER_4_55
*121 FILLER_4_90
*122 FILLER_4_98
*123 FILLER_5_130
*124 FILLER_5_138
*125 FILLER_5_142
*126 FILLER_5_150
*127 FILLER_5_2
*128 FILLER_5_66
*129 FILLER_5_72
*130 FILLER_6_107
*131 FILLER_6_115
*132 FILLER_6_119
*133 FILLER_6_2
*134 FILLER_6_34
*135 FILLER_6_37
*136 FILLER_6_53
*137 FILLER_7_139
*138 FILLER_7_146
*139 FILLER_7_150
*140 FILLER_7_2
*141 FILLER_7_34
*142 FILLER_7_50
*143 FILLER_7_58
*144 FILLER_7_78
*145 FILLER_7_86
*146 FILLER_7_88
*147 FILLER_8_107
*148 FILLER_8_109
*149 FILLER_8_2
*150 FILLER_8_34
*151 FILLER_8_37
*152 FILLER_8_53
*153 FILLER_8_61
*154 FILLER_8_85
*155 FILLER_9_142
*156 FILLER_9_150
*157 FILLER_9_2
*158 FILLER_9_66
*159 FILLER_9_80
*160 FILLER_9_88
*161 PHY_EDGE_ROW_0_Left_17
*162 PHY_EDGE_ROW_0_Right_0
*163 PHY_EDGE_ROW_10_Left_27
*164 PHY_EDGE_ROW_10_Right_10
*165 PHY_EDGE_ROW_11_Left_28
*166 PHY_EDGE_ROW_11_Right_11
*167 PHY_EDGE_ROW_12_Left_29
*168 PHY_EDGE_ROW_12_Right_12
*169 PHY_EDGE_ROW_13_Left_30
*170 PHY_EDGE_ROW_13_Right_13
*171 PHY_EDGE_ROW_14_Left_31
*172 PHY_EDGE_ROW_14_Right_14
*173 PHY_EDGE_ROW_15_Left_32
*174 PHY_EDGE_ROW_15_Right_15
*175 PHY_EDGE_ROW_16_Left_33
*176 PHY_EDGE_ROW_16_Right_16
*177 PHY_EDGE_ROW_1_Left_18
*178 PHY_EDGE_ROW_1_Right_1
*179 PHY_EDGE_ROW_2_Left_19
*180 PHY_EDGE_ROW_2_Right_2
*181 PHY_EDGE_ROW_3_Left_20
*182 PHY_EDGE_ROW_3_Right_3
*183 PHY_EDGE_ROW_4_Left_21
*184 PHY_EDGE_ROW_4_Right_4
*185 PHY_EDGE_ROW_5_Left_22
*186 PHY_EDGE_ROW_5_Right_5
*187 PHY_EDGE_ROW_6_Left_23
*188 PHY_EDGE_ROW_6_Right_6
*189 PHY_EDGE_ROW_7_Left_24
*190 PHY_EDGE_ROW_7_Right_7
*191 PHY_EDGE_ROW_8_Left_25
*192 PHY_EDGE_ROW_8_Right_8
*193 PHY_EDGE_ROW_9_Left_26
*194 PHY_EDGE_ROW_9_Right_9
*195 TAP_TAPCELL_ROW_0_34
*196 TAP_TAPCELL_ROW_0_35
*197 TAP_TAPCELL_ROW_0_36
*198 TAP_TAPCELL_ROW_0_37
*199 TAP_TAPCELL_ROW_10_56
*200 TAP_TAPCELL_ROW_10_57
*201 TAP_TAPCELL_ROW_11_58
*202 TAP_TAPCELL_ROW_11_59
*203 TAP_TAPCELL_ROW_12_60
*204 TAP_TAPCELL_ROW_12_61
*205 TAP_TAPCELL_ROW_13_62
*206 TAP_TAPCELL_ROW_13_63
*207 TAP_TAPCELL_ROW_14_64
*208 TAP_TAPCELL_ROW_14_65
*209 TAP_TAPCELL_ROW_15_66
*210 TAP_TAPCELL_ROW_15_67
*211 TAP_TAPCELL_ROW_16_68
*212 TAP_TAPCELL_ROW_16_69
*213 TAP_TAPCELL_ROW_16_70
*214 TAP_TAPCELL_ROW_16_71
*215 TAP_TAPCELL_ROW_1_38
*216 TAP_TAPCELL_ROW_1_39
*217 TAP_TAPCELL_ROW_2_40
*218 TAP_TAPCELL_ROW_2_41
*219 TAP_TAPCELL_ROW_3_42
*220 TAP_TAPCELL_ROW_3_43
*221 TAP_TAPCELL_ROW_4_44
*222 TAP_TAPCELL_ROW_4_45
*223 TAP_TAPCELL_ROW_5_46
*224 TAP_TAPCELL_ROW_5_47
*225 TAP_TAPCELL_ROW_6_48
*226 TAP_TAPCELL_ROW_6_49
*227 TAP_TAPCELL_ROW_7_50
*228 TAP_TAPCELL_ROW_7_51
*229 TAP_TAPCELL_ROW_8_52
*230 TAP_TAPCELL_ROW_8_53
*231 TAP_TAPCELL_ROW_9_54
*232 TAP_TAPCELL_ROW_9_55
*233 _15_
*234 _16_
*235 _17_
*236 _18_
*237 _19_
*238 _20_
*239 _21_
*240 _22_
*241 _23_
*242 _24_
*243 _25_
*244 _26_
*245 _27_
*246 _28_
*247 _29_
*248 _30_
*249 _31_
*250 _32_
*251 _33_
*252 _34_
*253 _35_
*254 _36_
*255 clkbuf_0_in_clk
*256 clkbuf_1_0__f_in_clk
*257 clkbuf_1_1__f_in_clk
*258 clkload0
*259 input1
*260 output2
*261 output3
*262 output4
*263 output5

*PORTS
in_clk I
out_clk1 O
out_clk2 O
out_clk2B O
out_clk_cic O
rst I

*D_NET *3 0.00728264
*CONN
*P in_clk I
*I *255:I I *D gf180mcu_fd_sc_mcu7t5v0__clkbuf_16
*CAP
1 in_clk 0.00334809
2 *255:I 0.00334809
3 *255:I *246:A1 0
4 *255:I *252:RN 0.000586469
5 *255:I *256:I 0
6 *255:I *257:I 0
7 *255:I *27:12 0
8 *255:I *29:34 0
*RES
1 in_clk *255:I 37.236 
*END

*D_NET *4 0.0025319
*CONN
*P out_clk1 O
*I *260:Z O *D gf180mcu_fd_sc_mcu7t5v0__dlyb_1
*CAP
1 out_clk1 0.000767417
2 *260:Z 0.000767417
3 out_clk1 *259:I 0.000613309
4 out_clk1 *260:I 0
5 out_clk1 *30:6 0.000100238
6 out_clk1 *30:12 0.000283521
*RES
1 *260:Z out_clk1 16.9709 
*END

*D_NET *5 0.00214419
*CONN
*P out_clk2 O
*I *261:Z O *D gf180mcu_fd_sc_mcu7t5v0__dlyb_1
*CAP
1 out_clk2 0.000761253
2 *261:Z 0.000761253
3 out_clk2 out_clk2B 0.000252653
4 out_clk2 *247:B1 0.000182894
5 out_clk2 *250:RN 0
6 out_clk2 *261:I 2.47495e-05
7 out_clk2 *262:I 8.88267e-06
8 out_clk2 *32:10 0.000152501
*RES
1 *261:Z out_clk2 15.9309 
*END

*D_NET *6 0.00247965
*CONN
*P out_clk2B O
*I *262:Z O *D gf180mcu_fd_sc_mcu7t5v0__dlyb_1
*CAP
1 out_clk2B 0.000871205
2 *262:Z 0.000871205
3 out_clk2B *250:RN 4.08898e-05
4 out_clk2B *262:I 0
5 out_clk2B *32:10 0.000443698
6 out_clk2 out_clk2B 0.000252653
*RES
1 *262:Z out_clk2B 16.9709 
*END

*D_NET *7 0.00312181
*CONN
*P out_clk_cic O
*I *263:Z O *D gf180mcu_fd_sc_mcu7t5v0__dlyb_1
*CAP
1 out_clk_cic 0.000934227
2 *263:Z 0.000934227
3 out_clk_cic *248:A1 0.00012517
4 out_clk_cic *250:RN 0
5 out_clk_cic *263:I 0.000438798
6 out_clk_cic *34:8 0.000689386
*RES
1 *263:Z out_clk_cic 17.3869 
*END

*D_NET *8 0.0012289
*CONN
*P rst I
*I *259:I I *D gf180mcu_fd_sc_mcu7t5v0__dlyb_1
*CAP
1 rst 0.000307796
2 *259:I 0.000307796
3 out_clk1 *259:I 0.000613309
*RES
1 rst *259:I 13.0189 
*END

*D_NET *9 0.000527239
*CONN
*I *252:D I *D gf180mcu_fd_sc_mcu7t5v0__dffrnq_1
*I *237:ZN O *D gf180mcu_fd_sc_mcu7t5v0__aoi21_1
*CAP
1 *252:D 0.000237042
2 *237:ZN 0.000237042
3 *252:D *237:A1 1.71326e-05
4 *252:D *243:S 0
5 *252:D *29:34 3.60231e-05
*RES
1 *237:ZN *252:D 10.872 
*END

*D_NET *10 0.000599977
*CONN
*I *253:D I *D gf180mcu_fd_sc_mcu7t5v0__dffrnq_1
*I *242:ZN O *D gf180mcu_fd_sc_mcu7t5v0__nor3_1
*CAP
1 *253:D 0.000220197
2 *242:ZN 0.000220197
3 *253:D *253:CLK 6.18411e-06
4 *253:D *254:RN 1.09852e-05
5 *253:D *29:8 0.000142413
6 *253:D *29:19 0
*RES
1 *242:ZN *253:D 11.08 
*END

*D_NET *11 0.00314903
*CONN
*I *254:D I *D gf180mcu_fd_sc_mcu7t5v0__dffrnq_1
*I *243:Z O *D gf180mcu_fd_sc_mcu7t5v0__mux2_2
*CAP
1 *254:D 0.000776305
2 *243:Z 0.000776305
3 *254:D *242:A3 0
4 *254:D *243:I1 6.87243e-05
5 *254:D *252:CLK 5.90026e-05
6 *254:D *254:CLK 0.00123834
7 *254:D *25:19 0.00023036
*RES
1 *243:Z *254:D 17.112 
*END

*D_NET *12 0.000934013
*CONN
*I *249:D I *D gf180mcu_fd_sc_mcu7t5v0__dffsnq_1
*I *245:ZN O *D gf180mcu_fd_sc_mcu7t5v0__oai21_1
*CAP
1 *249:D 0.000339528
2 *245:ZN 0.000339528
3 *249:D *249:CLK 0.000254958
4 *249:D *31:12 0
*RES
1 *245:ZN *249:D 12.224 
*END

*D_NET *13 0.000803022
*CONN
*I *250:D I *D gf180mcu_fd_sc_mcu7t5v0__dffrnq_1
*I *247:ZN O *D gf180mcu_fd_sc_mcu7t5v0__aoi22_1
*CAP
1 *250:D 0.000286895
2 *247:ZN 0.000286895
3 *250:D *247:B1 6.97265e-05
4 *250:D *250:CLK 0.000159505
*RES
1 *247:ZN *250:D 20.496 
*END

*D_NET *14 0.00128907
*CONN
*I *251:D I *D gf180mcu_fd_sc_mcu7t5v0__dffrnq_1
*I *248:ZN O *D gf180mcu_fd_sc_mcu7t5v0__aoi21_1
*CAP
1 *251:D 0.000302378
2 *248:ZN 0.000302378
3 *251:D *247:B2 0
4 *251:D *250:CLK 0.000346997
5 *251:D *263:I 1.84122e-05
6 *251:D *26:6 0.000318905
*RES
1 *248:ZN *251:D 12.224 
*END

*D_NET *15 0.00125931
*CONN
*I *246:A1 I *D gf180mcu_fd_sc_mcu7t5v0__nand2_1
*I *233:ZN O *D gf180mcu_fd_sc_mcu7t5v0__clkinv_1
*CAP
1 *246:A1 0.000160002
2 *233:ZN 0.000160002
3 *246:A1 *233:I 9.7618e-05
4 *246:A1 *257:I 0.000142919
5 *246:A1 *27:12 0.000698772
6 *255:I *246:A1 0
*RES
1 *233:ZN *246:A1 11.184 
*END

*D_NET *16 0.00340735
*CONN
*I *248:A1 I *D gf180mcu_fd_sc_mcu7t5v0__aoi21_1
*I *235:ZN O *D gf180mcu_fd_sc_mcu7t5v0__clkinv_1
*CAP
1 *248:A1 0.00104306
2 *235:ZN 0.00104306
3 *248:A1 *235:I 0.000668592
4 *248:A1 *247:B1 0
5 *248:A1 *250:RN 0.000186543
6 *248:A1 *261:I 0
7 *248:A1 *17:10 0.000280581
8 *248:A1 *30:68 6.03497e-05
9 out_clk_cic *248:A1 0.00012517
*RES
1 *235:ZN *248:A1 27.672 
*END

*D_NET *17 0.00153959
*CONN
*I *248:A2 I *D gf180mcu_fd_sc_mcu7t5v0__aoi21_1
*I *247:B2 I *D gf180mcu_fd_sc_mcu7t5v0__aoi22_1
*I *236:Z O *D gf180mcu_fd_sc_mcu7t5v0__and2_1
*CAP
1 *248:A2 0
2 *247:B2 0.000219336
3 *236:Z 0.000259173
4 *17:10 0.000478509
5 *247:B2 *250:CLK 0.000301995
6 *17:10 *247:A2 0
7 *17:10 *247:B1 0
8 *248:A1 *17:10 0.000280581
9 *251:D *247:B2 0
*RES
1 *236:Z *17:10 15.476 
2 *17:10 *247:B2 6.684 
3 *17:10 *248:A2 4.5 
*END

*D_NET *18 0.00227649
*CONN
*I *242:A2 I *D gf180mcu_fd_sc_mcu7t5v0__nor3_1
*I *243:I0 I *D gf180mcu_fd_sc_mcu7t5v0__mux2_2
*I *238:Z O *D gf180mcu_fd_sc_mcu7t5v0__and2_1
*CAP
1 *242:A2 0.000299459
2 *243:I0 0.000103424
3 *238:Z 3.6366e-05
4 *18:6 0.000439249
5 *242:A2 *242:A3 0.000318328
6 *242:A2 *243:I1 2.63349e-05
7 *242:A2 *29:19 0.00100922
8 *243:I0 *243:I1 2.0502e-05
9 *243:I0 *243:S 1.12327e-05
10 *243:I0 *29:19 1.23682e-05
*RES
1 *238:Z *18:6 4.812 
2 *18:6 *243:I0 5.54 
3 *18:6 *242:A2 8.868 
*END

*D_NET *19 0.000218196
*CONN
*I *247:A1 I *D gf180mcu_fd_sc_mcu7t5v0__aoi22_1
*I *239:ZN O *D gf180mcu_fd_sc_mcu7t5v0__nand2_1
*CAP
1 *247:A1 0.000109098
2 *239:ZN 0.000109098
3 *247:A1 *248:B 0
*RES
1 *239:ZN *247:A1 9.936 
*END

*D_NET *20 0.00104543
*CONN
*I *248:B I *D gf180mcu_fd_sc_mcu7t5v0__aoi21_1
*I *240:ZN O *D gf180mcu_fd_sc_mcu7t5v0__aoi21_1
*CAP
1 *248:B 0.000333687
2 *240:ZN 0.000333687
3 *248:B *240:A1 5.74667e-05
4 *248:B *250:CLK 4.83913e-05
5 *248:B *26:6 5.85694e-05
6 *248:B *28:37 0.000113016
7 *248:B *28:74 0.000100611
8 *247:A1 *248:B 0
*RES
1 *240:ZN *248:B 12.12 
*END

*D_NET *21 0.00207152
*CONN
*I *243:I1 I *D gf180mcu_fd_sc_mcu7t5v0__mux2_2
*I *242:A3 I *D gf180mcu_fd_sc_mcu7t5v0__nor3_1
*I *241:ZN O *D gf180mcu_fd_sc_mcu7t5v0__nor2_1
*CAP
1 *243:I1 0.000433952
2 *242:A3 0.000366582
3 *241:ZN 0
4 *21:4 0.000800534
5 *243:I1 *243:S 1.18244e-05
6 *243:I1 *252:CLK 2.47364e-05
7 *242:A2 *242:A3 0.000318328
8 *242:A2 *243:I1 2.63349e-05
9 *243:I0 *243:I1 2.0502e-05
10 *254:D *242:A3 0
11 *254:D *243:I1 6.87243e-05
*RES
1 *241:ZN *21:4 4.5 
2 *21:4 *242:A3 7.932 
3 *21:4 *243:I1 7.412 
*END

*D_NET *22 0.000123146
*CONN
*I *245:B I *D gf180mcu_fd_sc_mcu7t5v0__oai21_1
*I *244:ZN O *D gf180mcu_fd_sc_mcu7t5v0__nand3_1
*CAP
1 *245:B 6.15731e-05
2 *244:ZN 6.15731e-05
*RES
1 *244:ZN *245:B 9.52 
*END

*D_NET *23 0.00130403
*CONN
*I *247:A2 I *D gf180mcu_fd_sc_mcu7t5v0__aoi22_1
*I *246:ZN O *D gf180mcu_fd_sc_mcu7t5v0__nand2_1
*CAP
1 *247:A2 0.000486398
2 *246:ZN 0.000486398
3 *247:A2 *236:A1 7.87395e-06
4 *247:A2 *239:A1 7.10954e-05
5 *247:A2 *239:A2 5.77498e-05
6 *247:A2 *27:12 0.000194511
7 *17:10 *247:A2 0
*RES
1 *246:ZN *247:A2 21.744 
*END

*D_NET *24 0.00192148
*CONN
*I *256:I I *D gf180mcu_fd_sc_mcu7t5v0__clkbuf_16
*I *257:I I *D gf180mcu_fd_sc_mcu7t5v0__clkbuf_16
*I *255:Z O *D gf180mcu_fd_sc_mcu7t5v0__clkbuf_16
*CAP
1 *256:I 0.000252952
2 *257:I 0.000489315
3 *255:Z 0.000137601
4 *24:9 0.000879868
5 *256:I *29:55 0
6 *257:I *233:I 1.88281e-05
7 *257:I *28:39 0
8 *257:I *29:49 0
9 *24:9 *28:39 0
10 *246:A1 *257:I 0.000142919
11 *255:I *256:I 0
12 *255:I *257:I 0
*RES
1 *255:Z *24:9 10.144 
2 *24:9 *257:I 12.536 
3 *24:9 *256:I 10.768 
*END

*D_NET *25 0.00450764
*CONN
*I *253:CLK I *D gf180mcu_fd_sc_mcu7t5v0__dffrnq_1
*I *252:CLK I *D gf180mcu_fd_sc_mcu7t5v0__dffrnq_1
*I *258:I I *D gf180mcu_fd_sc_mcu7t5v0__clkbuf_2
*I *254:CLK I *D gf180mcu_fd_sc_mcu7t5v0__dffrnq_1
*I *256:Z O *D gf180mcu_fd_sc_mcu7t5v0__clkbuf_16
*CAP
1 *253:CLK 0.000145763
2 *252:CLK 0.000619982
3 *258:I 0
4 *254:CLK 0.000469138
5 *256:Z 0.000145763
6 *25:19 0.000796413
7 *25:4 0.000645569
8 *252:CLK *237:A2 0
9 *252:CLK *243:S 0
10 *253:CLK *29:19 0.000126399
11 *243:I1 *252:CLK 2.47364e-05
12 *253:D *253:CLK 6.18411e-06
13 *254:D *252:CLK 5.90026e-05
14 *254:D *254:CLK 0.00123834
15 *254:D *25:19 0.00023036
*RES
1 *256:Z *25:4 4.5 
2 *25:4 *254:CLK 17.868 
3 *25:4 *25:19 1.768 
4 *25:19 *258:I 4.5 
5 *25:19 *252:CLK 9.076 
6 *256:Z *253:CLK 10.352 
*END

*D_NET *26 0.00470464
*CONN
*I *250:CLK I *D gf180mcu_fd_sc_mcu7t5v0__dffrnq_1
*I *251:CLK I *D gf180mcu_fd_sc_mcu7t5v0__dffrnq_1
*I *249:CLK I *D gf180mcu_fd_sc_mcu7t5v0__dffsnq_1
*I *257:Z O *D gf180mcu_fd_sc_mcu7t5v0__clkbuf_16
*CAP
1 *250:CLK 0.000492036
2 *251:CLK 0
3 *249:CLK 0.000772358
4 *257:Z 0
5 *26:6 0.00091046
6 *26:4 0.000630138
7 *249:CLK *244:A2 1.40331e-05
8 *249:CLK *260:I 0
9 *249:CLK *28:26 0.000338685
10 *249:CLK *28:37 3.3698e-05
11 *249:CLK *31:12 0
12 *250:CLK *239:A1 0
13 *250:CLK *239:A2 0
14 *250:CLK *263:I 0
15 *250:CLK *28:74 0
16 *26:6 *28:37 2.39077e-05
17 *247:B2 *250:CLK 0.000301995
18 *248:B *250:CLK 4.83913e-05
19 *248:B *26:6 5.85694e-05
20 *249:D *249:CLK 0.000254958
21 *250:D *250:CLK 0.000159505
22 *251:D *250:CLK 0.000346997
23 *251:D *26:6 0.000318905
*RES
1 *257:Z *26:4 4.5 
2 *26:4 *26:6 1.768 
3 *26:6 *249:CLK 11.052 
4 *26:6 *251:CLK 4.5 
5 *26:4 *250:CLK 9.18 
*END

*D_NET *27 0.0100174
*CONN
*I *239:A1 I *D gf180mcu_fd_sc_mcu7t5v0__nand2_1
*I *240:A1 I *D gf180mcu_fd_sc_mcu7t5v0__aoi21_1
*I *238:A1 I *D gf180mcu_fd_sc_mcu7t5v0__and2_1
*I *241:A1 I *D gf180mcu_fd_sc_mcu7t5v0__nor2_1
*I *237:B I *D gf180mcu_fd_sc_mcu7t5v0__aoi21_1
*I *233:I I *D gf180mcu_fd_sc_mcu7t5v0__clkinv_1
*I *252:Q O *D gf180mcu_fd_sc_mcu7t5v0__dffrnq_1
*CAP
1 *239:A1 0.000323254
2 *240:A1 0.000281636
3 *238:A1 0
4 *241:A1 0.00036258
5 *237:B 0.000176249
6 *233:I 6.6038e-05
7 *252:Q 9.37257e-05
8 *27:38 0.000450623
9 *27:23 0.000638056
10 *27:21 0.000655401
11 *27:12 0.000287936
12 *27:8 0.000638878
13 *233:I *29:49 1.33956e-05
14 *237:B *237:A2 0.000271764
15 *237:B *243:S 5.78698e-05
16 *237:B *28:39 0.00019118
17 *237:B *29:19 0.000341551
18 *237:B *29:34 0
19 *239:A1 *239:A2 0.000410048
20 *239:A1 *29:45 0.000111711
21 *240:A1 *28:37 0.000297168
22 *240:A1 *28:39 0.000561163
23 *240:A1 *28:74 1.03283e-05
24 *240:A1 *29:45 0
25 *240:A1 *29:49 1.63544e-05
26 *240:A1 *29:55 4.07478e-05
27 *241:A1 *237:A2 0
28 *241:A1 *241:A2 0.000704365
29 *241:A1 *252:RN 0
30 *241:A1 *28:39 0
31 *27:8 *29:34 8.66234e-05
32 *27:8 *29:45 5.28381e-05
33 *27:12 *236:A1 3.99399e-06
34 *27:12 *29:49 9.43811e-05
35 *27:23 *28:39 0.0016117
36 *27:23 *29:34 0
37 *27:23 *29:45 0
38 *27:38 *241:A2 2.46717e-05
39 *27:38 *252:RN 0
40 *27:38 *29:19 2.88268e-06
41 *246:A1 *233:I 9.7618e-05
42 *246:A1 *27:12 0.000698772
43 *247:A2 *239:A1 7.10954e-05
44 *247:A2 *27:12 0.000194511
45 *248:B *240:A1 5.74667e-05
46 *250:CLK *239:A1 0
47 *255:I *27:12 0
48 *257:I *233:I 1.88281e-05
*RES
1 *252:Q *27:8 10.144 
2 *27:8 *27:12 7.308 
3 *27:12 *233:I 5.02 
4 *27:12 *27:21 4.5 
5 *27:21 *27:23 4.264 
6 *27:23 *237:B 11.08 
7 *27:23 *27:38 5.02 
8 *27:38 *241:A1 16.62 
9 *27:38 *238:A1 4.5 
10 *27:21 *240:A1 11.912 
11 *27:8 *239:A1 11.912 
*END

*D_NET *28 0.0115038
*CONN
*I *236:A2 I *D gf180mcu_fd_sc_mcu7t5v0__and2_1
*I *239:A2 I *D gf180mcu_fd_sc_mcu7t5v0__nand2_1
*I *238:A2 I *D gf180mcu_fd_sc_mcu7t5v0__and2_1
*I *241:A2 I *D gf180mcu_fd_sc_mcu7t5v0__nor2_1
*I *237:A2 I *D gf180mcu_fd_sc_mcu7t5v0__aoi21_1
*I *240:A2 I *D gf180mcu_fd_sc_mcu7t5v0__aoi21_1
*I *244:A2 I *D gf180mcu_fd_sc_mcu7t5v0__nand3_1
*I *245:A2 I *D gf180mcu_fd_sc_mcu7t5v0__oai21_1
*I *253:Q O *D gf180mcu_fd_sc_mcu7t5v0__dffrnq_1
*CAP
1 *236:A2 0
2 *239:A2 0.000172016
3 *238:A2 0
4 *241:A2 0.000324408
5 *237:A2 0.000364968
6 *240:A2 0
7 *244:A2 0.000238246
8 *245:A2 0
9 *253:Q 6.06099e-05
10 *28:74 0.000425136
11 *28:52 0.000324408
12 *28:39 0.000837546
13 *28:37 0.000959348
14 *28:26 0.000587288
15 *28:6 0.000652494
16 *237:A2 *243:S 0.000159517
17 *239:A2 *236:A1 4.07478e-05
18 *241:A2 *29:19 0.000239927
19 *244:A2 *244:A1 0.000489387
20 *244:A2 *29:55 0.000202814
21 *244:A2 *30:12 7.29199e-05
22 *28:26 *29:55 0.000230036
23 *28:37 *29:55 7.87395e-06
24 *28:74 *236:A1 2.46831e-05
25 *28:74 *29:49 0.000325312
26 *237:B *237:A2 0.000271764
27 *237:B *28:39 0.00019118
28 *239:A1 *239:A2 0.000410048
29 *240:A1 *28:37 0.000297168
30 *240:A1 *28:39 0.000561163
31 *240:A1 *28:74 1.03283e-05
32 *241:A1 *237:A2 0
33 *241:A1 *241:A2 0.000704365
34 *241:A1 *28:39 0
35 *247:A2 *239:A2 5.77498e-05
36 *248:B *28:37 0.000113016
37 *248:B *28:74 0.000100611
38 *249:CLK *244:A2 1.40331e-05
39 *249:CLK *28:26 0.000338685
40 *249:CLK *28:37 3.3698e-05
41 *250:CLK *239:A2 0
42 *250:CLK *28:74 0
43 *252:CLK *237:A2 0
44 *257:I *28:39 0
45 *24:9 *28:39 0
46 *26:6 *28:37 2.39077e-05
47 *27:23 *28:39 0.0016117
48 *27:38 *241:A2 2.46717e-05
*RES
1 *253:Q *28:6 5.02 
2 *28:6 *245:A2 4.5 
3 *28:6 *244:A2 15.996 
4 *28:6 *28:26 3.848 
5 *28:26 *240:A2 4.5 
6 *28:26 *28:37 6.58 
7 *28:37 *28:39 6.136 
8 *28:39 *237:A2 12.12 
9 *28:39 *28:52 4.5 
10 *28:52 *241:A2 17.036 
11 *28:52 *238:A2 4.5 
12 *28:37 *28:74 7.1 
13 *28:74 *239:A2 6.372 
14 *28:74 *236:A2 4.5 
*END

*D_NET *29 0.0115501
*CONN
*I *243:S I *D gf180mcu_fd_sc_mcu7t5v0__mux2_2
*I *236:A1 I *D gf180mcu_fd_sc_mcu7t5v0__and2_1
*I *240:B I *D gf180mcu_fd_sc_mcu7t5v0__aoi21_1
*I *244:A1 I *D gf180mcu_fd_sc_mcu7t5v0__nand3_1
*I *245:A1 I *D gf180mcu_fd_sc_mcu7t5v0__oai21_1
*I *246:A2 I *D gf180mcu_fd_sc_mcu7t5v0__nand2_1
*I *237:A1 I *D gf180mcu_fd_sc_mcu7t5v0__aoi21_1
*I *242:A1 I *D gf180mcu_fd_sc_mcu7t5v0__nor3_1
*I *254:Q O *D gf180mcu_fd_sc_mcu7t5v0__dffrnq_1
*CAP
1 *243:S 0.000205164
2 *236:A1 1.99211e-05
3 *240:B 0
4 *244:A1 9.65137e-06
5 *245:A1 0
6 *246:A2 0
7 *237:A1 0.000308568
8 *242:A1 0
9 *254:Q 0.000399986
10 *29:55 0.000638918
11 *29:49 0.00103498
12 *29:45 0.000602942
13 *29:34 0.000939286
14 *29:19 0.00144274
15 *29:8 0.000977338
16 *244:A1 *30:12 0.000531148
17 *29:55 *30:12 0.000522341
18 *233:I *29:49 1.33956e-05
19 *237:A2 *243:S 0.000159517
20 *237:B *243:S 5.78698e-05
21 *237:B *29:19 0.000341551
22 *237:B *29:34 0
23 *239:A1 *29:45 0.000111711
24 *239:A2 *236:A1 4.07478e-05
25 *240:A1 *29:45 0
26 *240:A1 *29:49 1.63544e-05
27 *240:A1 *29:55 4.07478e-05
28 *241:A2 *29:19 0.000239927
29 *242:A2 *29:19 0.00100922
30 *243:I0 *243:S 1.12327e-05
31 *243:I0 *29:19 1.23682e-05
32 *243:I1 *243:S 1.18244e-05
33 *244:A2 *244:A1 0.000489387
34 *244:A2 *29:55 0.000202814
35 *247:A2 *236:A1 7.87395e-06
36 *252:D *237:A1 1.71326e-05
37 *252:D *243:S 0
38 *252:D *29:34 3.60231e-05
39 *252:CLK *243:S 0
40 *253:D *29:8 0.000142413
41 *253:D *29:19 0
42 *253:CLK *29:19 0.000126399
43 *255:I *29:34 0
44 *256:I *29:55 0
45 *257:I *29:49 0
46 *27:8 *29:34 8.66234e-05
47 *27:8 *29:45 5.28381e-05
48 *27:12 *236:A1 3.99399e-06
49 *27:12 *29:49 9.43811e-05
50 *27:23 *29:34 0
51 *27:23 *29:45 0
52 *27:38 *29:19 2.88268e-06
53 *28:26 *29:55 0.000230036
54 *28:37 *29:55 7.87395e-06
55 *28:74 *236:A1 2.46831e-05
56 *28:74 *29:49 0.000325312
*RES
1 *254:Q *29:8 7.62 
2 *29:8 *242:A1 4.5 
3 *29:8 *29:19 7.176 
4 *29:19 *237:A1 5.54 
5 *29:19 *29:34 10.116 
6 *29:34 *246:A2 9 
7 *29:34 *29:45 6.06 
8 *29:45 *29:49 3.744 
9 *29:49 *29:55 9.908 
10 *29:55 *245:A1 9 
11 *29:55 *244:A1 10.352 
12 *29:49 *240:B 4.5 
13 *29:45 *236:A1 4.812 
14 *237:A1 *243:S 11.288 
*END

*D_NET *30 0.0121703
*CONN
*I *250:RN I *D gf180mcu_fd_sc_mcu7t5v0__dffrnq_1
*I *251:RN I *D gf180mcu_fd_sc_mcu7t5v0__dffrnq_1
*I *249:SETN I *D gf180mcu_fd_sc_mcu7t5v0__dffsnq_1
*I *253:RN I *D gf180mcu_fd_sc_mcu7t5v0__dffrnq_1
*I *252:RN I *D gf180mcu_fd_sc_mcu7t5v0__dffrnq_1
*I *254:RN I *D gf180mcu_fd_sc_mcu7t5v0__dffrnq_1
*I *259:Z O *D gf180mcu_fd_sc_mcu7t5v0__dlyb_1
*CAP
1 *250:RN 0.000784115
2 *251:RN 0
3 *249:SETN 0.00054254
4 *253:RN 0
5 *252:RN 0.000877039
6 *254:RN 0.000681505
7 *259:Z 0
8 *30:68 0.00134314
9 *30:16 0.00191401
10 *30:12 0.00114522
11 *30:6 0.00146395
12 *30:4 0.000690692
13 *250:RN *235:I 0.000135018
14 *250:RN *262:I 8.01745e-05
15 *30:68 *263:I 9.14543e-05
16 *30:68 *34:8 2.60017e-05
17 out_clk1 *30:6 0.000100238
18 out_clk1 *30:12 0.000283521
19 out_clk2 *250:RN 0
20 out_clk2B *250:RN 4.08898e-05
21 out_clk_cic *250:RN 0
22 *241:A1 *252:RN 0
23 *244:A1 *30:12 0.000531148
24 *244:A2 *30:12 7.29199e-05
25 *248:A1 *250:RN 0.000186543
26 *248:A1 *30:68 6.03497e-05
27 *253:D *254:RN 1.09852e-05
28 *255:I *252:RN 0.000586469
29 *27:38 *252:RN 0
30 *29:55 *30:12 0.000522341
*RES
1 *259:Z *30:4 4.5 
2 *30:4 *30:6 1.144 
3 *30:6 *30:12 11.156 
4 *30:12 *30:16 7.724 
5 *30:16 *254:RN 17.868 
6 *30:16 *252:RN 11.468 
7 *30:12 *253:RN 9 
8 *30:6 *249:SETN 7.62 
9 *30:4 *30:68 13.16 
10 *30:68 *251:RN 4.5 
11 *30:68 *250:RN 10.428 
*END

*D_NET *31 0.00255546
*CONN
*I *244:A3 I *D gf180mcu_fd_sc_mcu7t5v0__nand3_1
*I *260:I I *D gf180mcu_fd_sc_mcu7t5v0__dlyb_1
*I *249:Q O *D gf180mcu_fd_sc_mcu7t5v0__dffsnq_1
*CAP
1 *244:A3 0
2 *260:I 0.000339679
3 *249:Q 0.000938051
4 *31:12 0.00127773
5 out_clk1 *260:I 0
6 *249:D *31:12 0
7 *249:CLK *260:I 0
8 *249:CLK *31:12 0
*RES
1 *249:Q *31:12 19.948 
2 *31:12 *260:I 6.892 
3 *31:12 *244:A3 4.5 
*END

*D_NET *32 0.00273543
*CONN
*I *234:I I *D gf180mcu_fd_sc_mcu7t5v0__clkinv_1
*I *261:I I *D gf180mcu_fd_sc_mcu7t5v0__dlyb_1
*I *250:Q O *D gf180mcu_fd_sc_mcu7t5v0__dffrnq_1
*CAP
1 *234:I 0
2 *261:I 0.000209391
3 *250:Q 0.000248184
4 *32:10 0.000457576
5 *261:I *247:B1 0.00119933
6 out_clk2 *261:I 2.47495e-05
7 out_clk2 *32:10 0.000152501
8 out_clk2B *32:10 0.000443698
9 *248:A1 *261:I 0
*RES
1 *250:Q *32:10 11.496 
2 *32:10 *261:I 12.224 
3 *32:10 *234:I 9 
*END

*D_NET *33 0.00356923
*CONN
*I *262:I I *D gf180mcu_fd_sc_mcu7t5v0__dlyb_1
*I *247:B1 I *D gf180mcu_fd_sc_mcu7t5v0__aoi22_1
*I *234:ZN O *D gf180mcu_fd_sc_mcu7t5v0__clkinv_1
*CAP
1 *262:I 0.000621798
2 *247:B1 0.000392314
3 *234:ZN 0
4 *33:4 0.00101411
5 out_clk2 *247:B1 0.000182894
6 out_clk2 *262:I 8.88267e-06
7 out_clk2B *262:I 0
8 *248:A1 *247:B1 0
9 *250:D *247:B1 6.97265e-05
10 *250:RN *262:I 8.01745e-05
11 *261:I *247:B1 0.00119933
12 *17:10 *247:B1 0
*RES
1 *234:ZN *33:4 4.5 
2 *33:4 *247:B1 18.804 
3 *33:4 *262:I 8.868 
*END

*D_NET *34 0.00386943
*CONN
*I *235:I I *D gf180mcu_fd_sc_mcu7t5v0__clkinv_1
*I *263:I I *D gf180mcu_fd_sc_mcu7t5v0__dlyb_1
*I *251:Q O *D gf180mcu_fd_sc_mcu7t5v0__dffrnq_1
*CAP
1 *235:I 0.000147625
2 *263:I 0.000652381
3 *251:Q 0.000100879
4 *34:8 0.000900885
5 out_clk_cic *263:I 0.000438798
6 out_clk_cic *34:8 0.000689386
7 *248:A1 *235:I 0.000668592
8 *250:RN *235:I 0.000135018
9 *250:CLK *263:I 0
10 *251:D *263:I 1.84122e-05
11 *30:68 *263:I 9.14543e-05
12 *30:68 *34:8 2.60017e-05
*RES
1 *251:Q *34:8 10.768 
2 *34:8 *263:I 14.408 
3 *34:8 *235:I 11.08 
*END
