*SPEF "ieee 1481-1999"
*DESIGN "piso_12bit"
*DATE "09:55:01 Tuesday August 25, 2026"
*VENDOR "The OpenROAD Project"
*PROGRAM "OpenROAD"
*VERSION "26Q1-1024-gdcf36133a"
*DESIGN_FLOW "NAME_SCOPE LOCAL" "PIN_CAP NONE"
*DIVIDER /
*DELIMITER :
*BUS_DELIMITER []
*T_UNIT 1 NS
*C_UNIT 1 PF
*R_UNIT 1 OHM
*L_UNIT 1 HENRY

*NAME_MAP
*3 clk
*4 data_in[0]
*5 data_in[10]
*6 data_in[11]
*7 data_in[1]
*8 data_in[2]
*9 data_in[3]
*10 data_in[4]
*11 data_in[5]
*12 data_in[6]
*13 data_in[7]
*14 data_in[8]
*15 data_in[9]
*16 load_en
*17 rst_n
*18 serial_out
*19 _00_
*20 _01_
*21 _02_
*22 _03_
*23 _04_
*24 _05_
*25 _06_
*26 _07_
*27 _08_
*28 _09_
*29 _10_
*30 _11_
*31 _12_
*32 _13_
*33 _14_
*34 _15_
*35 _16_
*36 _17_
*37 _18_
*38 _19_
*39 _20_
*40 _21_
*41 _22_
*42 _23_
*43 _24_
*44 _25_
*45 _26_
*46 _27_
*47 _28_
*48 _29_
*49 _30_
*50 _31_
*51 _32_
*52 _33_
*53 clknet_0_clk
*54 clknet_1_0__leaf_clk
*55 clknet_1_1__leaf_clk
*56 net1
*57 net10
*58 net11
*59 net12
*60 net13
*61 net14
*62 net15
*63 net2
*64 net3
*65 net4
*66 net5
*67 net6
*68 net7
*69 net8
*70 net9
*71 shift_reg\[0\]
*72 shift_reg\[10\]
*73 shift_reg\[1\]
*74 shift_reg\[2\]
*75 shift_reg\[3\]
*76 shift_reg\[4\]
*77 shift_reg\[5\]
*78 shift_reg\[6\]
*79 shift_reg\[7\]
*80 shift_reg\[8\]
*81 shift_reg\[9\]
*82 FILLER_0_104
*83 FILLER_0_106
*84 FILLER_0_18
*85 FILLER_0_20
*86 FILLER_10_104
*87 FILLER_10_106
*88 FILLER_10_2
*89 FILLER_10_36
*90 FILLER_10_52
*91 FILLER_1_106
*92 FILLER_1_18
*93 FILLER_1_20
*94 FILLER_1_55
*95 FILLER_2_18
*96 FILLER_3_106
*97 FILLER_4_34
*98 FILLER_4_37
*99 FILLER_5_106
*100 FILLER_5_2
*101 FILLER_5_69
*102 FILLER_6_47
*103 FILLER_6_49
*104 FILLER_7_106
*105 FILLER_8_103
*106 FILLER_8_26
*107 FILLER_8_28
*108 FILLER_8_33
*109 FILLER_8_41
*110 FILLER_8_45
*111 FILLER_8_47
*112 FILLER_9_2
*113 FILLER_9_38
*114 FILLER_9_46
*115 FILLER_9_50
*116 FILLER_9_60
*117 FILLER_9_72
*118 FILLER_9_74
*119 PHY_EDGE_ROW_0_Left_11
*120 PHY_EDGE_ROW_0_Right_0
*121 PHY_EDGE_ROW_10_Left_21
*122 PHY_EDGE_ROW_10_Right_10
*123 PHY_EDGE_ROW_1_Left_12
*124 PHY_EDGE_ROW_1_Right_1
*125 PHY_EDGE_ROW_2_Left_13
*126 PHY_EDGE_ROW_2_Right_2
*127 PHY_EDGE_ROW_3_Left_14
*128 PHY_EDGE_ROW_3_Right_3
*129 PHY_EDGE_ROW_4_Left_15
*130 PHY_EDGE_ROW_4_Right_4
*131 PHY_EDGE_ROW_5_Left_16
*132 PHY_EDGE_ROW_5_Right_5
*133 PHY_EDGE_ROW_6_Left_17
*134 PHY_EDGE_ROW_6_Right_6
*135 PHY_EDGE_ROW_7_Left_18
*136 PHY_EDGE_ROW_7_Right_7
*137 PHY_EDGE_ROW_8_Left_19
*138 PHY_EDGE_ROW_8_Right_8
*139 PHY_EDGE_ROW_9_Left_20
*140 PHY_EDGE_ROW_9_Right_9
*141 TAP_TAPCELL_ROW_0_22
*142 TAP_TAPCELL_ROW_0_23
*143 TAP_TAPCELL_ROW_0_24
*144 TAP_TAPCELL_ROW_10_38
*145 TAP_TAPCELL_ROW_10_39
*146 TAP_TAPCELL_ROW_10_40
*147 TAP_TAPCELL_ROW_1_25
*148 TAP_TAPCELL_ROW_2_26
*149 TAP_TAPCELL_ROW_2_27
*150 TAP_TAPCELL_ROW_3_28
*151 TAP_TAPCELL_ROW_4_29
*152 TAP_TAPCELL_ROW_4_30
*153 TAP_TAPCELL_ROW_5_31
*154 TAP_TAPCELL_ROW_6_32
*155 TAP_TAPCELL_ROW_6_33
*156 TAP_TAPCELL_ROW_7_34
*157 TAP_TAPCELL_ROW_8_35
*158 TAP_TAPCELL_ROW_8_36
*159 TAP_TAPCELL_ROW_9_37
*160 _34_
*161 _35_
*162 _36_
*163 _37_
*164 _38_
*165 _39_
*166 _40_
*167 _41_
*168 _42_
*169 _43_
*170 _44_
*171 _45_
*172 _46_
*173 _47_
*174 _48_
*175 _49_
*176 _50_
*177 _51_
*178 _52_
*179 _53_
*180 _54_
*181 _55_
*182 _56_
*183 _57_
*184 _58_
*185 _59_
*186 _60_
*187 _61_
*188 _62_
*189 _63_
*190 _64_
*191 _65_
*192 _66_
*193 _67_
*194 _68_
*195 _69_
*196 _70_
*197 _71_
*198 _72_
*199 _73_
*200 _74_
*201 _75_
*202 _76_
*203 _77_
*204 _78_
*205 _79_
*206 clkbuf_0_clk
*207 clkbuf_1_0__f_clk
*208 clkbuf_1_1__f_clk
*209 clkload0
*210 input1
*211 input10
*212 input11
*213 input12
*214 input13
*215 input14
*216 input2
*217 input3
*218 input4
*219 input5
*220 input6
*221 input7
*222 input8
*223 input9
*224 output15

*PORTS
clk I
data_in[0] I
data_in[10] I
data_in[11] I
data_in[1] I
data_in[2] I
data_in[3] I
data_in[4] I
data_in[5] I
data_in[6] I
data_in[7] I
data_in[8] I
data_in[9] I
load_en I
rst_n I
serial_out O

*D_NET *3 0.0050751
*CONN
*P clk I
*I *206:I I *D gf180mcu_fd_sc_mcu7t5v0__clkbuf_16
*CAP
1 clk 0.00158227
2 *206:I 0.00158227
3 *206:I *166:I 0
4 *206:I *167:I 0.000112564
5 *206:I *168:I 9.88736e-06
6 *206:I *170:I 1.42281e-05
7 *206:I *175:A1 2.9378e-06
8 *206:I *175:A2 0
9 *206:I *180:A2 3.25235e-05
10 *206:I *192:A2 6.04444e-06
11 *206:I *200:RN 0.000473477
12 *206:I *201:CLK 0.000149248
13 *206:I *204:RN 0.000337496
14 *206:I *212:I 0.000543495
15 *206:I *60:206 0.00022866
*RES
1 clk *206:I 21.426 
*END

*D_NET *4 0.00142396
*CONN
*P data_in[0] I
*I *210:I I *D gf180mcu_fd_sc_mcu7t5v0__dlyb_1
*CAP
1 data_in[0] 0.000329713
2 *210:I 0.000329713
3 *210:I *171:A1 0
4 *210:I *172:A1 9.88736e-06
5 *210:I *219:I 0.000754647
*RES
1 data_in[0] *210:I 12.458 
*END

*D_NET *5 0.00347017
*CONN
*P data_in[10] I
*I *216:I I *D gf180mcu_fd_sc_mcu7t5v0__dlyb_1
*CAP
1 data_in[10] 0.000455339
2 *216:I 0.000455339
3 *216:I serial_out 0.000518731
4 *216:I *169:I 0.000246185
5 *216:I *189:A1 0.000147092
6 *216:I *190:A2 0.000317494
7 *216:I *202:D 3.37025e-05
8 *216:I *213:I 0
9 *216:I *217:I 0.00121083
10 *216:I *224:I 1.45141e-05
11 *216:I *60:230 7.09482e-05
*RES
1 data_in[10] *216:I 16.562 
*END

*D_NET *6 0.00300788
*CONN
*P data_in[11] I
*I *217:I I *D gf180mcu_fd_sc_mcu7t5v0__dlyb_1
*CAP
1 data_in[11] 0.000714304
2 *217:I 0.000714304
3 *217:I *166:I 0.000101075
4 *217:I *169:I 0.000246185
5 *217:I *201:RN 0
6 *217:I *202:D 0
7 *217:I *60:230 2.11881e-05
8 *217:I *61:104 0
9 *216:I *217:I 0.00121083
*RES
1 data_in[11] *217:I 16.41 
*END

*D_NET *7 0.00212951
*CONN
*P data_in[1] I
*I *218:I I *D gf180mcu_fd_sc_mcu7t5v0__dlyb_1
*CAP
1 data_in[1] 0.000504907
2 *218:I 0.000504907
3 *218:I *171:A1 0.000140396
4 *218:I *172:A1 4.29636e-06
5 *218:I *219:I 0.000975006
*RES
1 data_in[1] *218:I 14.282 
*END

*D_NET *8 0.00206438
*CONN
*P data_in[2] I
*I *219:I I *D gf180mcu_fd_sc_mcu7t5v0__dlyb_1
*CAP
1 data_in[2] 0.000164388
2 *219:I 0.000164388
3 *219:I *171:A1 5.94708e-06
4 *210:I *219:I 0.000754647
5 *218:I *219:I 0.000975006
*RES
1 data_in[2] *219:I 13.066 
*END

*D_NET *9 0.00154913
*CONN
*P data_in[3] I
*I *220:I I *D gf180mcu_fd_sc_mcu7t5v0__dlyb_1
*CAP
1 data_in[3] 0.000774565
2 *220:I 0.000774565
*RES
1 data_in[3] *220:I 9.706 
*END

*D_NET *10 0.00690203
*CONN
*P data_in[4] I
*I *221:I I *D gf180mcu_fd_sc_mcu7t5v0__dlyb_1
*CAP
1 data_in[4] 0.00136761
2 *221:I 0.00136761
3 *221:I *178:A2 0.00115937
4 *221:I *178:B 0.00114319
5 *221:I *192:A1 6.61664e-05
6 *221:I *196:D 0.000875489
7 *221:I *203:RN 0
8 *221:I *215:I 0.000820578
9 *221:I *61:10 0
10 *221:I *61:86 0
11 *221:I *61:122 0.000102028
*RES
1 data_in[4] *221:I 33.162 
*END

*D_NET *11 0.00296873
*CONN
*P data_in[5] I
*I *222:I I *D gf180mcu_fd_sc_mcu7t5v0__dlyb_1
*CAP
1 data_in[5] 0.000698598
2 *222:I 0.000698598
3 *222:I *166:I 4.71447e-05
4 *222:I *196:D 0.000111992
5 *222:I *196:CLK 0.000190667
6 *222:I *198:RN 0.000255714
7 *222:I *203:RN 0.000608136
8 *222:I *215:I 0.000305515
9 *222:I *55:65 5.23685e-05
*RES
1 data_in[5] *222:I 16.182 
*END

*D_NET *12 0.00183735
*CONN
*P data_in[6] I
*I *223:I I *D gf180mcu_fd_sc_mcu7t5v0__dlyb_1
*CAP
1 data_in[6] 0.000493718
2 *223:I 0.000493718
3 *223:I *160:I 7.72307e-05
4 *223:I *172:A1 0.000170253
5 *223:I *199:D 3.11048e-05
6 *223:I *199:CLK 0.000571321
7 *223:I *214:I 0
*RES
1 data_in[6] *223:I 13.37 
*END

*D_NET *13 0.00115262
*CONN
*P data_in[7] I
*I *211:I I *D gf180mcu_fd_sc_mcu7t5v0__dlyb_1
*CAP
1 data_in[7] 4.60548e-05
2 *211:I 4.60548e-05
3 *211:I *160:I 3.73627e-05
4 *211:I *212:I 0.000511573
5 *211:I *214:I 0.000511573
*RES
1 data_in[7] *211:I 11.698 
*END

*D_NET *14 0.00153208
*CONN
*P data_in[8] I
*I *212:I I *D gf180mcu_fd_sc_mcu7t5v0__dlyb_1
*CAP
1 data_in[8] 0.000115021
2 *212:I 0.000115021
3 *212:I *160:I 0.000246974
4 *206:I *212:I 0.000543495
5 *211:I *212:I 0.000511573
*RES
1 data_in[8] *212:I 12.306 
*END

*D_NET *15 0.00237068
*CONN
*P data_in[9] I
*I *213:I I *D gf180mcu_fd_sc_mcu7t5v0__dlyb_1
*CAP
1 data_in[9] 0.00118534
2 *213:I 0.00118534
3 *216:I *213:I 0
*RES
1 data_in[9] *213:I 21.442 
*END

*D_NET *16 0.00130127
*CONN
*P load_en I
*I *214:I I *D gf180mcu_fd_sc_mcu7t5v0__dlyb_1
*CAP
1 load_en 0.00030889
2 *214:I 0.00030889
3 *214:I *160:I 0.000171918
4 *211:I *214:I 0.000511573
5 *223:I *214:I 0
*RES
1 load_en *214:I 12.458 
*END

*D_NET *17 0.00331824
*CONN
*P rst_n I
*I *215:I I *D gf180mcu_fd_sc_mcu7t5v0__dlyb_1
*CAP
1 rst_n 0.000821764
2 *215:I 0.000821764
3 *215:I *179:A2 2.11524e-05
4 *215:I *197:D 0.000260129
5 *215:I *198:D 0.000211119
6 *215:I *61:122 5.62195e-05
7 *221:I *215:I 0.000820578
8 *222:I *215:I 0.000305515
*RES
1 rst_n *215:I 17.93 
*END

*D_NET *18 0.00140299
*CONN
*P serial_out O
*I *224:Z O *D gf180mcu_fd_sc_mcu7t5v0__dlyb_1
*CAP
1 serial_out 0.000396052
2 *224:Z 0.000396052
3 serial_out *189:A2 8.22324e-05
4 serial_out *224:I 9.92271e-06
5 *216:I serial_out 0.000518731
*RES
1 *224:Z serial_out 12.914 
*END

*D_NET *19 0.00246934
*CONN
*I *204:D I *D gf180mcu_fd_sc_mcu7t5v0__dffrnq_1
*I *193:Z O *D gf180mcu_fd_sc_mcu7t5v0__and2_1
*CAP
1 *204:D 0.000878964
2 *193:Z 0.000878964
3 *204:D *174:A2 7.68206e-05
4 *204:D *186:A2 0.000418356
5 *204:D *204:CLK 0.000128877
6 *204:D *60:44 6.6185e-05
7 *204:D *60:50 2.9378e-06
8 *204:D *60:156 6.48311e-06
9 *204:D *60:167 1.17512e-05
*RES
1 *193:Z *204:D 14.928 
*END

*D_NET *20 0.00079354
*CONN
*I *202:D I *D gf180mcu_fd_sc_mcu7t5v0__dffrnq_1
*I *190:ZN O *D gf180mcu_fd_sc_mcu7t5v0__oai21_1
*CAP
1 *202:D 0.000348092
2 *190:ZN 0.000348092
3 *202:D *190:A2 7.24161e-06
4 *202:D *190:B 0
5 *202:D *224:I 5.64131e-05
6 *216:I *202:D 3.37025e-05
7 *217:I *202:D 0
*RES
1 *190:ZN *202:D 11.356 
*END

*D_NET *21 0.0036273
*CONN
*I *203:D I *D gf180mcu_fd_sc_mcu7t5v0__dffrnq_1
*I *192:ZN O *D gf180mcu_fd_sc_mcu7t5v0__oai21_1
*CAP
1 *203:D 0.000540518
2 *192:ZN 0.000540518
3 *203:D *178:A2 1.44832e-05
4 *203:D *192:A2 0.00073293
5 *203:D *192:B 0.000300464
6 *203:D *195:CLK 1.2682e-05
7 *203:D *197:D 0.000128875
8 *203:D *198:CLK 3.83835e-06
9 *203:D *203:CLK 6.46328e-05
10 *203:D *55:6 2.85624e-05
11 *203:D *55:14 0.000371628
12 *203:D *61:10 0
13 *203:D *61:86 0
14 *203:D *61:97 0.000147313
15 *203:D *61:104 0.000740856
*RES
1 *192:ZN *203:D 24.612 
*END

*D_NET *22 0.00365267
*CONN
*I *205:D I *D gf180mcu_fd_sc_mcu7t5v0__dffrnq_1
*I *172:ZN O *D gf180mcu_fd_sc_mcu7t5v0__oai21_1
*CAP
1 *205:D 0.000363792
2 *172:ZN 0.000363792
3 *205:D *176:A1 0
4 *205:D *178:A2 0.000107858
5 *205:D *180:B 0.00104423
6 *205:D *192:A2 0.000171927
7 *205:D *195:CLK 0.00150149
8 *205:D *197:D 0
9 *205:D *60:73 1.30303e-05
10 *205:D *60:98 8.65608e-05
*RES
1 *172:ZN *205:D 23.776 
*END

*D_NET *23 0.000628181
*CONN
*I *194:D I *D gf180mcu_fd_sc_mcu7t5v0__dffrnq_1
*I *174:ZN O *D gf180mcu_fd_sc_mcu7t5v0__oai21_1
*CAP
1 *194:D 0.00014228
2 *174:ZN 0.00014228
3 *194:D *178:A1 0
4 *194:D *179:A1 0.000317494
5 *194:D *182:A1 2.6126e-05
*RES
1 *174:ZN *194:D 10.216 
*END

*D_NET *24 0.000895749
*CONN
*I *195:D I *D gf180mcu_fd_sc_mcu7t5v0__dffrnq_1
*I *176:ZN O *D gf180mcu_fd_sc_mcu7t5v0__oai21_1
*CAP
1 *195:D 0.000329365
2 *176:ZN 0.000329365
3 *195:D *167:I 1.38267e-05
4 *195:D *176:A1 7.3227e-05
5 *195:D *180:B 1.17551e-05
6 *195:D *61:27 0.00013821
*RES
1 *176:ZN *195:D 11.128 
*END

*D_NET *25 0.00688813
*CONN
*I *196:D I *D gf180mcu_fd_sc_mcu7t5v0__dffrnq_1
*I *178:ZN O *D gf180mcu_fd_sc_mcu7t5v0__oai21_1
*CAP
1 *196:D 0.000593891
2 *178:ZN 0.000593891
3 *196:D *177:A2 0.000539951
4 *196:D *178:B 0.000574996
5 *196:D *179:A2 0.00351341
6 *196:D *198:RN 6.68164e-05
7 *196:D *203:RN 1.76898e-05
8 *221:I *196:D 0.000875489
9 *222:I *196:D 0.000111992
*RES
1 *178:ZN *196:D 30.54 
*END

*D_NET *26 0.00330962
*CONN
*I *197:D I *D gf180mcu_fd_sc_mcu7t5v0__dffrnq_1
*I *180:ZN O *D gf180mcu_fd_sc_mcu7t5v0__oai21_1
*CAP
1 *197:D 0.000865436
2 *180:ZN 0.000865436
3 *197:D *165:I 0.000378609
4 *197:D *175:A2 3.68758e-05
5 *197:D *180:A1 7.3227e-05
6 *197:D *182:A2 0.000252638
7 *197:D *195:CLK 0
8 *197:D *198:D 0
9 *197:D *201:CLK 3.38382e-05
10 *197:D *203:RN 0.000147305
11 *197:D *55:14 0.000132633
12 *197:D *60:124 0.000134622
13 *197:D *61:86 0
14 *197:D *61:122 0
15 *203:D *197:D 0.000128875
16 *205:D *197:D 0
17 *215:I *197:D 0.000260129
*RES
1 *180:ZN *197:D 26.132 
*END

*D_NET *27 0.00701159
*CONN
*I *198:D I *D gf180mcu_fd_sc_mcu7t5v0__dffrnq_1
*I *182:ZN O *D gf180mcu_fd_sc_mcu7t5v0__oai21_1
*CAP
1 *198:D 0.00171137
2 *182:ZN 0.00171137
3 *198:D *174:B 0.000214502
4 *198:D *176:B 0.000504788
5 *198:D *182:B 0.00100809
6 *198:D *194:CLK 9.74428e-05
7 *198:D *196:RN 7.71175e-06
8 *198:D *198:CLK 0.000282217
9 *198:D *201:CLK 1.38674e-06
10 *198:D *60:44 4.448e-05
11 *198:D *61:97 0.000564624
12 *198:D *61:104 0.00065248
13 *197:D *198:D 0
14 *215:I *198:D 0.000211119
*RES
1 *182:ZN *198:D 31.832 
*END

*D_NET *28 0.00414647
*CONN
*I *199:D I *D gf180mcu_fd_sc_mcu7t5v0__dffrnq_1
*I *184:ZN O *D gf180mcu_fd_sc_mcu7t5v0__oai21_1
*CAP
1 *199:D 0.000651076
2 *184:ZN 0.000651076
3 *199:D *160:I 0.000171927
4 *199:D *171:A1 0.000252329
5 *199:D *171:A2 0.000294409
6 *199:D *172:A1 0.00033094
7 *199:D *181:A2 0.000523959
8 *199:D *184:A1 2.57971e-05
9 *199:D *184:A2 0.000121764
10 *199:D *186:B 0.000317494
11 *199:D *199:CLK 2.69281e-06
12 *199:D *200:CLK 5.4634e-05
13 *199:D *204:RN 0
14 *199:D *54:43 0.00026286
15 *199:D *60:10 0.000396904
16 *199:D *60:269 5.75052e-05
17 *223:I *199:D 3.11048e-05
*RES
1 *184:ZN *199:D 25.6 
*END

*D_NET *29 0.000799036
*CONN
*I *200:D I *D gf180mcu_fd_sc_mcu7t5v0__dffrnq_1
*I *186:ZN O *D gf180mcu_fd_sc_mcu7t5v0__oai21_1
*CAP
1 *200:D 0.000169201
2 *186:ZN 0.000169201
3 *200:D *184:A2 0.000349114
4 *200:D *186:A2 0.000102992
5 *200:D *60:44 8.52842e-06
*RES
1 *186:ZN *200:D 10.824 
*END

*D_NET *30 0.000676465
*CONN
*I *201:D I *D gf180mcu_fd_sc_mcu7t5v0__dffrnq_1
*I *188:ZN O *D gf180mcu_fd_sc_mcu7t5v0__oai21_1
*CAP
1 *201:D 0.000141147
2 *188:ZN 0.000141147
3 *201:D *178:A2 0.000260617
4 *201:D *188:A2 0.000133554
*RES
1 *188:ZN *201:D 10.2757 
*END

*D_NET *31 0.00289551
*CONN
*I *172:A1 I *D gf180mcu_fd_sc_mcu7t5v0__oai21_1
*I *160:ZN O *D gf180mcu_fd_sc_mcu7t5v0__clkinv_1
*CAP
1 *172:A1 0.0009148
2 *160:ZN 0.0009148
3 *172:A1 *171:A1 1.7295e-05
4 *172:A1 *172:B 9.78907e-05
5 *172:A1 *173:A2 0
6 *172:A1 *174:A2 1.84387e-05
7 *172:A1 *180:B 0.000142064
8 *172:A1 *182:A2 0
9 *172:A1 *199:CLK 0.000101579
10 *172:A1 *60:50 0.000161672
11 *172:A1 *61:31 1.15966e-05
12 *199:D *172:A1 0.00033094
13 *210:I *172:A1 9.88736e-06
14 *218:I *172:A1 4.29636e-06
15 *223:I *172:A1 0.000170253
*RES
1 *160:ZN *172:A1 25.068 
*END

*D_NET *32 0.00478483
*CONN
*I *174:A2 I *D gf180mcu_fd_sc_mcu7t5v0__oai21_1
*I *161:ZN O *D gf180mcu_fd_sc_mcu7t5v0__clkinv_1
*CAP
1 *174:A2 0.000817725
2 *161:ZN 0.000817725
3 *174:A2 *161:I 0.000925367
4 *174:A2 *173:A2 0.000609763
5 *174:A2 *181:A1 2.96621e-05
6 *174:A2 *182:A1 0.000340793
7 *174:A2 *182:A2 0.000615605
8 *174:A2 *194:CLK 1.18988e-05
9 *174:A2 *204:CLK 0.000360235
10 *174:A2 *60:50 0.000160795
11 *172:A1 *174:A2 1.84387e-05
12 *204:D *174:A2 7.68206e-05
*RES
1 *161:ZN *174:A2 26.74 
*END

*D_NET *33 0.00236409
*CONN
*I *176:A2 I *D gf180mcu_fd_sc_mcu7t5v0__oai21_1
*I *162:ZN O *D gf180mcu_fd_sc_mcu7t5v0__clkinv_1
*CAP
1 *176:A2 0.000453189
2 *162:ZN 0.000453189
3 *176:A2 *162:I 0.000297124
4 *176:A2 *167:I 5.33989e-05
5 *176:A2 *173:A1 8.55242e-05
6 *176:A2 *173:A2 0.000318975
7 *176:A2 *174:B 0.000589693
8 *176:A2 *198:CLK 2.74661e-05
9 *176:A2 *200:RN 8.55327e-05
*RES
1 *162:ZN *176:A2 13.864 
*END

*D_NET *34 0.0078113
*CONN
*I *178:A2 I *D gf180mcu_fd_sc_mcu7t5v0__oai21_1
*I *163:ZN O *D gf180mcu_fd_sc_mcu7t5v0__clkinv_1
*CAP
1 *178:A2 0.00154405
2 *163:ZN 0.00154405
3 *178:A2 *163:I 0.000549757
4 *178:A2 *168:I 1.15275e-05
5 *178:A2 *175:A2 0.000141196
6 *178:A2 *177:A1 8.55327e-05
7 *178:A2 *177:A2 4.24811e-05
8 *178:A2 *178:A1 0.000183247
9 *178:A2 *178:B 0.000313818
10 *178:A2 *182:A2 0.000183978
11 *178:A2 *188:A2 7.73871e-05
12 *178:A2 *188:B 0.000524509
13 *178:A2 *192:A1 1.20889e-05
14 *178:A2 *192:A2 8.27049e-05
15 *178:A2 *192:B 0
16 *178:A2 *201:CLK 0.000504501
17 *178:A2 *208:I 0.000174665
18 *178:A2 *53:13 0.000160772
19 *178:A2 *60:73 0
20 *178:A2 *60:98 0
21 *178:A2 *60:104 0.000132711
22 *201:D *178:A2 0.000260617
23 *203:D *178:A2 1.44832e-05
24 *205:D *178:A2 0.000107858
25 *221:I *178:A2 0.00115937
*RES
1 *163:ZN *178:A2 33.58 
*END

*D_NET *35 0.00316483
*CONN
*I *180:A2 I *D gf180mcu_fd_sc_mcu7t5v0__oai21_1
*I *164:ZN O *D gf180mcu_fd_sc_mcu7t5v0__clkinv_1
*CAP
1 *180:A2 0.000487122
2 *164:ZN 0.000487122
3 *180:A2 *162:I 0.000881247
4 *180:A2 *164:I 2.44046e-05
5 *180:A2 *168:I 7.90146e-05
6 *180:A2 *175:A1 8.55242e-05
7 *180:A2 *175:A2 0.000196224
8 *180:A2 *176:B 0.000486244
9 *180:A2 *60:206 0.000405409
10 *206:I *180:A2 3.25235e-05
*RES
1 *164:ZN *180:A2 14.852 
*END

*D_NET *36 0.00796375
*CONN
*I *182:A2 I *D gf180mcu_fd_sc_mcu7t5v0__oai21_1
*I *165:ZN O *D gf180mcu_fd_sc_mcu7t5v0__clkinv_1
*CAP
1 *182:A2 0.000829543
2 *165:ZN 0.000829543
3 *182:A2 *165:I 0.00075055
4 *182:A2 *173:A2 0.000193508
5 *182:A2 *174:B 2.74602e-05
6 *182:A2 *176:A1 0.000463903
7 *182:A2 *176:B 1.84362e-06
8 *182:A2 *187:A1 0.000391795
9 *182:A2 *187:A2 0.00023197
10 *182:A2 *188:B 0.000431246
11 *182:A2 *192:A2 0.00162112
12 *182:A2 *198:CLK 0.000150543
13 *182:A2 *201:CLK 0.000373799
14 *182:A2 *208:I 0.000174665
15 *182:A2 *53:13 0.000165537
16 *182:A2 *61:27 4.4998e-05
17 *182:A2 *61:31 0.000156831
18 *182:A2 *61:48 7.26757e-05
19 *172:A1 *182:A2 0
20 *174:A2 *182:A2 0.000615605
21 *178:A2 *182:A2 0.000183978
22 *197:D *182:A2 0.000252638
*RES
1 *165:ZN *182:A2 30.92 
*END

*D_NET *37 0.00225597
*CONN
*I *184:A2 I *D gf180mcu_fd_sc_mcu7t5v0__oai21_1
*I *166:ZN O *D gf180mcu_fd_sc_mcu7t5v0__clkinv_1
*CAP
1 *184:A2 0.000283068
2 *166:ZN 0.000283068
3 *184:A2 *181:A2 0.000402297
4 *184:A2 *182:B 9.07079e-06
5 *184:A2 *186:A2 4.47886e-05
6 *184:A2 *200:CLK 7.83779e-05
7 *184:A2 *54:43 0.000493315
8 *184:A2 *60:38 0.000133969
9 *184:A2 *60:156 9.88736e-06
10 *184:A2 *60:167 4.725e-05
11 *199:D *184:A2 0.000121764
12 *200:D *184:A2 0.000349114
*RES
1 *166:ZN *184:A2 21.572 
*END

*D_NET *38 0.00113592
*CONN
*I *186:A2 I *D gf180mcu_fd_sc_mcu7t5v0__oai21_1
*I *167:ZN O *D gf180mcu_fd_sc_mcu7t5v0__clkinv_1
*CAP
1 *186:A2 0.000279947
2 *167:ZN 0.000279947
3 *186:A2 *60:167 9.88736e-06
4 *184:A2 *186:A2 4.47886e-05
5 *200:D *186:A2 0.000102992
6 *204:D *186:A2 0.000418356
*RES
1 *167:ZN *186:A2 11.66 
*END

*D_NET *39 0.000889011
*CONN
*I *188:A2 I *D gf180mcu_fd_sc_mcu7t5v0__oai21_1
*I *168:ZN O *D gf180mcu_fd_sc_mcu7t5v0__clkinv_1
*CAP
1 *188:A2 0.00012332
2 *168:ZN 0.00012332
3 *188:A2 *168:I 0.000125838
4 *188:A2 *201:CLK 0.000305592
5 *178:A2 *188:A2 7.73871e-05
6 *201:D *188:A2 0.000133554
*RES
1 *168:ZN *188:A2 10.596 
*END

*D_NET *40 0.00259883
*CONN
*I *190:A2 I *D gf180mcu_fd_sc_mcu7t5v0__oai21_1
*I *169:ZN O *D gf180mcu_fd_sc_mcu7t5v0__clkinv_1
*CAP
1 *190:A2 0.000352687
2 *169:ZN 0.000352687
3 *190:A2 *164:I 0.00020133
4 *190:A2 *169:I 0.00134061
5 *190:A2 *170:I 2.69281e-06
6 *190:A2 *224:I 2.40867e-05
7 *190:A2 *60:230 0
8 *202:D *190:A2 7.24161e-06
9 *216:I *190:A2 0.000317494
*RES
1 *169:ZN *190:A2 22.408 
*END

*D_NET *41 0.00618365
*CONN
*I *192:A2 I *D gf180mcu_fd_sc_mcu7t5v0__oai21_1
*I *170:ZN O *D gf180mcu_fd_sc_mcu7t5v0__clkinv_1
*CAP
1 *192:A2 0.00049568
2 *170:ZN 0.00049568
3 *192:A2 *165:I 0.00173538
4 *192:A2 *170:I 0.000659638
5 *192:A2 *192:B 5.83457e-05
6 *192:A2 *60:206 6.37951e-05
7 *192:A2 *60:219 6.04092e-05
8 *178:A2 *192:A2 8.27049e-05
9 *182:A2 *192:A2 0.00162112
10 *203:D *192:A2 0.00073293
11 *205:D *192:A2 0.000171927
12 *206:I *192:A2 6.04444e-06
*RES
1 *170:ZN *192:A2 27.12 
*END

*D_NET *42 0.00294334
*CONN
*I *172:B I *D gf180mcu_fd_sc_mcu7t5v0__oai21_1
*I *171:ZN O *D gf180mcu_fd_sc_mcu7t5v0__nand2_1
*CAP
1 *172:B 0.000406378
2 *171:ZN 0.000406378
3 *172:B *171:A1 0.00125815
4 *172:B *173:A2 0.000379503
5 *172:B *180:B 0.000163399
6 *172:B *181:A2 0.000105765
7 *172:B *193:A2 7.24161e-06
8 *172:B *60:73 0.000118634
9 *172:A1 *172:B 9.78907e-05
*RES
1 *171:ZN *172:B 23.624 
*END

*D_NET *43 0.00444819
*CONN
*I *174:B I *D gf180mcu_fd_sc_mcu7t5v0__oai21_1
*I *173:ZN O *D gf180mcu_fd_sc_mcu7t5v0__nand2_1
*CAP
1 *174:B 0.000779605
2 *173:ZN 0.000779605
3 *174:B *162:I 0.000105692
4 *174:B *173:A2 0.00029449
5 *174:B *176:B 0.000113169
6 *174:B *180:B 6.73926e-05
7 *174:B *181:A2 1.27295e-05
8 *174:B *182:B 0.000211292
9 *174:B *193:A2 0.000820749
10 *174:B *194:CLK 0.000195958
11 *174:B *198:CLK 0.000234468
12 *174:B *54:10 1.38674e-06
13 *176:A2 *174:B 0.000589693
14 *182:A2 *174:B 2.74602e-05
15 *198:D *174:B 0.000214502
*RES
1 *173:ZN *174:B 26.284 
*END

*D_NET *44 0.00254723
*CONN
*I *176:B I *D gf180mcu_fd_sc_mcu7t5v0__oai21_1
*I *175:ZN O *D gf180mcu_fd_sc_mcu7t5v0__nand2_1
*CAP
1 *176:B 0.000170109
2 *175:ZN 0.000170109
3 *176:B *161:I 0.000256181
4 *176:B *162:I 0.000486244
5 *176:B *167:I 0.000297994
6 *176:B *198:CLK 6.05474e-05
7 *174:B *176:B 0.000113169
8 *180:A2 *176:B 0.000486244
9 *182:A2 *176:B 1.84362e-06
10 *198:D *176:B 0.000504788
*RES
1 *175:ZN *176:B 21.572 
*END

*D_NET *45 0.00356764
*CONN
*I *178:B I *D gf180mcu_fd_sc_mcu7t5v0__oai21_1
*I *177:ZN O *D gf180mcu_fd_sc_mcu7t5v0__nand2_1
*CAP
1 *178:B 0.000352492
2 *177:ZN 0.000352492
3 *178:B *177:A2 0.00070032
4 *178:B *178:A1 5.90849e-05
5 *178:B *179:A1 4.03461e-05
6 *178:B *179:A2 3.09035e-05
7 *178:B *60:73 0
8 *178:A2 *178:B 0.000313818
9 *196:D *178:B 0.000574996
10 *221:I *178:B 0.00114319
*RES
1 *177:ZN *178:B 23.852 
*END

*D_NET *46 0.00456303
*CONN
*I *180:B I *D gf180mcu_fd_sc_mcu7t5v0__oai21_1
*I *179:ZN O *D gf180mcu_fd_sc_mcu7t5v0__nand2_1
*CAP
1 *180:B 0.000777178
2 *179:ZN 0.000777178
3 *180:B *162:I 0.000595303
4 *180:B *171:A1 0
5 *180:B *173:A2 0
6 *180:B *176:A1 0
7 *180:B *179:A1 0.000194624
8 *180:B *194:CLK 0.000555095
9 *180:B *60:73 4.05529e-05
10 *180:B *61:27 0.000194266
11 *180:B *61:31 0
12 *172:A1 *180:B 0.000142064
13 *172:B *180:B 0.000163399
14 *174:B *180:B 6.73926e-05
15 *195:D *180:B 1.17551e-05
16 *205:D *180:B 0.00104423
*RES
1 *179:ZN *180:B 26.436 
*END

*D_NET *47 0.0034892
*CONN
*I *182:B I *D gf180mcu_fd_sc_mcu7t5v0__oai21_1
*I *181:ZN O *D gf180mcu_fd_sc_mcu7t5v0__nand2_1
*CAP
1 *182:B 0.000471452
2 *181:ZN 0.000471452
3 *182:B *161:I 0.000379283
4 *182:B *167:I 0.000379283
5 *182:B *181:A2 2.6233e-05
6 *182:B *194:CLK 0.000406025
7 *182:B *54:8 8.0761e-05
8 *182:B *54:10 2.85217e-05
9 *182:B *60:38 1.77333e-05
10 *174:B *182:B 0.000211292
11 *184:A2 *182:B 9.07079e-06
12 *198:D *182:B 0.00100809
*RES
1 *181:ZN *182:B 23.396 
*END

*D_NET *48 0.00104827
*CONN
*I *184:B I *D gf180mcu_fd_sc_mcu7t5v0__oai21_1
*I *183:ZN O *D gf180mcu_fd_sc_mcu7t5v0__nand2_1
*CAP
1 *184:B 0.000196997
2 *183:ZN 0.000196997
3 *184:B *183:A1 1.02578e-05
4 *184:B *183:A2 0.000156903
5 *184:B *184:A1 0.000192331
6 *184:B *185:A2 0.000204607
7 *184:B *60:269 9.0178e-05
*RES
1 *183:ZN *184:B 11.28 
*END

*D_NET *49 0.000970826
*CONN
*I *186:B I *D gf180mcu_fd_sc_mcu7t5v0__oai21_1
*I *185:ZN O *D gf180mcu_fd_sc_mcu7t5v0__nand2_1
*CAP
1 *186:B 7.52197e-05
2 *185:ZN 7.52197e-05
3 *186:B *54:43 5.23776e-05
4 *186:B *60:12 7.83779e-05
5 *186:B *60:269 0.000372137
6 *199:D *186:B 0.000317494
*RES
1 *185:ZN *186:B 10.368 
*END

*D_NET *50 0.00145094
*CONN
*I *188:B I *D gf180mcu_fd_sc_mcu7t5v0__oai21_1
*I *187:ZN O *D gf180mcu_fd_sc_mcu7t5v0__nand2_1
*CAP
1 *188:B 6.19886e-05
2 *187:ZN 6.19886e-05
3 *188:B *163:I 0.000125867
4 *188:B *187:A1 0.000245342
5 *178:A2 *188:B 0.000524509
6 *182:A2 *188:B 0.000431246
*RES
1 *187:ZN *188:B 10.9 
*END

*D_NET *51 0.000136364
*CONN
*I *190:B I *D gf180mcu_fd_sc_mcu7t5v0__oai21_1
*I *189:ZN O *D gf180mcu_fd_sc_mcu7t5v0__nand2_1
*CAP
1 *190:B 3.06444e-05
2 *189:ZN 3.06444e-05
3 *190:B *224:I 7.50749e-05
4 *202:D *190:B 0
*RES
1 *189:ZN *190:B 9.38 
*END

*D_NET *52 0.00315287
*CONN
*I *192:B I *D gf180mcu_fd_sc_mcu7t5v0__oai21_1
*I *191:ZN O *D gf180mcu_fd_sc_mcu7t5v0__nand2_1
*CAP
1 *192:B 0.00048925
2 *191:ZN 0.00048925
3 *192:B *163:I 0.00060233
4 *192:B *165:I 0.00070399
5 *192:B *191:A2 0
6 *192:B *195:CLK 0.000431543
7 *192:B *198:CLK 1.91917e-06
8 *192:B *61:8 7.57767e-05
9 *178:A2 *192:B 0
10 *192:A2 *192:B 5.83457e-05
11 *203:D *192:B 0.000300464
*RES
1 *191:ZN *192:B 15.46 
*END

*D_NET *53 0.00178604
*CONN
*I *207:I I *D gf180mcu_fd_sc_mcu7t5v0__clkbuf_16
*I *208:I I *D gf180mcu_fd_sc_mcu7t5v0__clkbuf_16
*I *206:Z O *D gf180mcu_fd_sc_mcu7t5v0__clkbuf_16
*CAP
1 *207:I 0
2 *208:I 9.05057e-05
3 *206:Z 0.000302838
4 *53:13 0.000393343
5 *53:13 *166:I 0.000323709
6 *178:A2 *208:I 0.000174665
7 *178:A2 *53:13 0.000160772
8 *182:A2 *208:I 0.000174665
9 *182:A2 *53:13 0.000165537
*RES
1 *206:Z *53:13 16.388 
2 *53:13 *208:I 5.64 
3 *53:13 *207:I 4.5 
*END

*D_NET *54 0.0133986
*CONN
*I *198:CLK I *D gf180mcu_fd_sc_mcu7t5v0__dffrnq_1
*I *200:CLK I *D gf180mcu_fd_sc_mcu7t5v0__dffrnq_1
*I *204:CLK I *D gf180mcu_fd_sc_mcu7t5v0__dffrnq_1
*I *194:CLK I *D gf180mcu_fd_sc_mcu7t5v0__dffrnq_1
*I *209:I I *D gf180mcu_fd_sc_mcu7t5v0__clkinv_2
*I *199:CLK I *D gf180mcu_fd_sc_mcu7t5v0__dffrnq_1
*I *207:Z O *D gf180mcu_fd_sc_mcu7t5v0__clkbuf_16
*CAP
1 *198:CLK 0.000827212
2 *200:CLK 8.11479e-06
3 *204:CLK 0.000548255
4 *194:CLK 0.000306583
5 *209:I 0
6 *199:CLK 0.000567817
7 *207:Z 0.000827212
8 *54:43 0.000693835
9 *54:10 0.000690292
10 *54:8 0.000462185
11 *54:4 0.000170592
12 *194:CLK *179:A1 0.00032464
13 *194:CLK *181:A2 7.35021e-06
14 *194:CLK *182:A1 0.000750705
15 *194:CLK *60:44 2.23812e-05
16 *194:CLK *60:50 1.31712e-06
17 *198:CLK *162:I 0.000117661
18 *198:CLK *164:I 0.000287443
19 *198:CLK *165:I 7.32209e-05
20 *198:CLK *195:CLK 2.25184e-05
21 *198:CLK *201:CLK 0.000354931
22 *198:CLK *55:6 0.000113043
23 *198:CLK *55:14 0.00035943
24 *198:CLK *61:8 0.000379274
25 *198:CLK *61:97 2.73945e-05
26 *199:CLK *171:A2 0.000105545
27 *204:CLK *161:I 2.23385e-05
28 *204:CLK *166:I 2.12988e-05
29 *204:CLK *181:A2 0
30 *204:CLK *200:RN 0.000321171
31 *204:CLK *204:RN 0.000394301
32 *204:CLK *60:167 8.2395e-06
33 *54:8 *171:A2 6.04444e-06
34 *54:8 *60:38 5.70962e-05
35 *54:10 *171:A2 0.000150534
36 *54:10 *193:A2 0
37 *54:43 *181:A2 0
38 *54:43 *60:12 9.17202e-06
39 *54:43 *60:23 3.13605e-05
40 *54:43 *60:44 7.72307e-05
41 *54:43 *60:156 6.45995e-06
42 *172:A1 *199:CLK 0.000101579
43 *174:A2 *194:CLK 1.18988e-05
44 *174:A2 *204:CLK 0.000360235
45 *174:B *194:CLK 0.000195958
46 *174:B *198:CLK 0.000234468
47 *174:B *54:10 1.38674e-06
48 *176:A2 *198:CLK 2.74661e-05
49 *176:B *198:CLK 6.05474e-05
50 *180:B *194:CLK 0.000555095
51 *182:A2 *198:CLK 0.000150543
52 *182:B *194:CLK 0.000406025
53 *182:B *54:8 8.0761e-05
54 *182:B *54:10 2.85217e-05
55 *184:A2 *200:CLK 7.83779e-05
56 *184:A2 *54:43 0.000493315
57 *186:B *54:43 5.23776e-05
58 *192:B *198:CLK 1.91917e-06
59 *198:D *194:CLK 9.74428e-05
60 *198:D *198:CLK 0.000282217
61 *199:D *199:CLK 2.69281e-06
62 *199:D *200:CLK 5.4634e-05
63 *199:D *54:43 0.00026286
64 *203:D *198:CLK 3.83835e-06
65 *204:D *204:CLK 0.000128877
66 *223:I *199:CLK 0.000571321
*RES
1 *207:Z *54:4 4.5 
2 *54:4 *54:8 5.032 
3 *54:8 *54:10 1.14 
4 *54:10 *199:CLK 13.104 
5 *54:10 *209:I 9 
6 *54:8 *194:CLK 13.788 
7 *54:4 *54:43 1.9 
8 *54:43 *204:CLK 17.908 
9 *54:43 *200:CLK 4.728 
10 *207:Z *198:CLK 26.284 
*END

*D_NET *55 0.0122748
*CONN
*I *202:CLK I *D gf180mcu_fd_sc_mcu7t5v0__dffrnq_1
*I *197:CLK I *D gf180mcu_fd_sc_mcu7t5v0__dffrnq_1
*I *196:CLK I *D gf180mcu_fd_sc_mcu7t5v0__dffrnq_1
*I *203:CLK I *D gf180mcu_fd_sc_mcu7t5v0__dffrnq_1
*I *201:CLK I *D gf180mcu_fd_sc_mcu7t5v0__dffrnq_1
*I *205:CLK I *D gf180mcu_fd_sc_mcu7t5v0__dffrnq_1
*I *195:CLK I *D gf180mcu_fd_sc_mcu7t5v0__dffrnq_1
*I *208:Z O *D gf180mcu_fd_sc_mcu7t5v0__clkbuf_16
*CAP
1 *202:CLK 0.00030177
2 *197:CLK 0
3 *196:CLK 9.28678e-05
4 *203:CLK 0.000118393
5 *201:CLK 0.000632179
6 *205:CLK 0
7 *195:CLK 0.000183512
8 *208:Z 6.21085e-05
9 *55:65 0.000187254
10 *55:63 0.000458264
11 *55:14 0.000317545
12 *55:6 0.000790265
13 *55:4 0.000142446
14 *195:CLK *163:I 0.000307966
15 *195:CLK *60:98 0.000252989
16 *195:CLK *61:10 0.000385478
17 *195:CLK *61:14 0.00100472
18 *196:CLK *166:I 0.000118807
19 *201:CLK *165:I 8.90185e-05
20 *201:CLK *168:I 0.000305592
21 *201:CLK *175:A1 1.65795e-06
22 *201:CLK *175:A2 0.000200186
23 *202:CLK *166:I 0.000174101
24 *202:CLK *203:RN 0.00017553
25 *202:CLK *224:I 0.000725285
26 *203:CLK *164:I 8.4224e-05
27 *55:65 *166:I 9.90744e-05
28 *55:65 *203:RN 5.91189e-05
29 *178:A2 *201:CLK 0.000504501
30 *182:A2 *201:CLK 0.000373799
31 *188:A2 *201:CLK 0.000305592
32 *192:B *195:CLK 0.000431543
33 *197:D *195:CLK 0
34 *197:D *201:CLK 3.38382e-05
35 *197:D *55:14 0.000132633
36 *198:D *201:CLK 1.38674e-06
37 *198:CLK *195:CLK 2.25184e-05
38 *198:CLK *201:CLK 0.000354931
39 *198:CLK *55:6 0.000113043
40 *198:CLK *55:14 0.00035943
41 *203:D *195:CLK 1.2682e-05
42 *203:D *203:CLK 6.46328e-05
43 *203:D *55:6 2.85624e-05
44 *203:D *55:14 0.000371628
45 *205:D *195:CLK 0.00150149
46 *206:I *201:CLK 0.000149248
47 *222:I *196:CLK 0.000190667
48 *222:I *55:65 5.23685e-05
*RES
1 *208:Z *55:4 4.5 
2 *55:4 *55:6 0.38 
3 *55:6 *55:14 10.824 
4 *55:14 *195:CLK 19.276 
5 *55:14 *205:CLK 4.5 
6 *55:6 *201:CLK 20.796 
7 *55:4 *203:CLK 5.488 
8 *208:Z *55:63 4.88 
9 *55:63 *55:65 0.988 
10 *55:65 *196:CLK 5.64 
11 *55:65 *197:CLK 4.5 
12 *55:63 *202:CLK 7.92 
*END

*D_NET *56 0.00248081
*CONN
*I *193:A2 I *D gf180mcu_fd_sc_mcu7t5v0__and2_1
*I *210:Z O *D gf180mcu_fd_sc_mcu7t5v0__dlyb_1
*CAP
1 *193:A2 0.000264336
2 *210:Z 0.000264336
3 *193:A2 *173:A2 0.00109326
4 *193:A2 *181:A2 3.08902e-05
5 *172:B *193:A2 7.24161e-06
6 *174:B *193:A2 0.000820749
7 *54:10 *193:A2 0
*RES
1 *210:Z *193:A2 22.256 
*END

*D_NET *57 0.000589165
*CONN
*I *183:A2 I *D gf180mcu_fd_sc_mcu7t5v0__nand2_1
*I *211:Z O *D gf180mcu_fd_sc_mcu7t5v0__dlyb_1
*CAP
1 *183:A2 0.000198265
2 *211:Z 0.000198265
3 *183:A2 *160:I 0
4 *183:A2 *185:A2 2.6126e-05
5 *183:A2 *60:12 5.75752e-06
6 *183:A2 *60:269 3.84832e-06
7 *184:B *183:A2 0.000156903
*RES
1 *211:Z *183:A2 10.52 
*END

*D_NET *58 0.00109163
*CONN
*I *185:A2 I *D gf180mcu_fd_sc_mcu7t5v0__nand2_1
*I *212:Z O *D gf180mcu_fd_sc_mcu7t5v0__dlyb_1
*CAP
1 *185:A2 0.000213015
2 *212:Z 0.000213015
3 *185:A2 *160:I 0
4 *185:A2 *204:RN 0.000352856
5 *185:A2 *60:10 5.23469e-05
6 *185:A2 *60:269 2.96621e-05
7 *183:A2 *185:A2 2.6126e-05
8 *184:B *185:A2 0.000204607
*RES
1 *212:Z *185:A2 20.356 
*END

*D_NET *59 0.000864523
*CONN
*I *187:A2 I *D gf180mcu_fd_sc_mcu7t5v0__nand2_1
*I *213:Z O *D gf180mcu_fd_sc_mcu7t5v0__dlyb_1
*CAP
1 *187:A2 0.00023398
2 *213:Z 0.00023398
3 *187:A2 *163:I 0.000134564
4 *187:A2 *165:I 3.00299e-05
5 *187:A2 *187:A1 0
6 *187:A2 *191:A2 0
7 *182:A2 *187:A2 0.00023197
*RES
1 *213:Z *187:A2 11.204 
*END

*D_NET *60 0.0242598
*CONN
*I *185:A1 I *D gf180mcu_fd_sc_mcu7t5v0__nand2_1
*I *184:A1 I *D gf180mcu_fd_sc_mcu7t5v0__oai21_1
*I *187:A1 I *D gf180mcu_fd_sc_mcu7t5v0__nand2_1
*I *189:A1 I *D gf180mcu_fd_sc_mcu7t5v0__nand2_1
*I *190:A1 I *D gf180mcu_fd_sc_mcu7t5v0__oai21_1
*I *191:A1 I *D gf180mcu_fd_sc_mcu7t5v0__nand2_1
*I *188:A1 I *D gf180mcu_fd_sc_mcu7t5v0__oai21_1
*I *175:A1 I *D gf180mcu_fd_sc_mcu7t5v0__nand2_1
*I *173:A1 I *D gf180mcu_fd_sc_mcu7t5v0__nand2_1
*I *181:A1 I *D gf180mcu_fd_sc_mcu7t5v0__nand2_1
*I *186:A1 I *D gf180mcu_fd_sc_mcu7t5v0__oai21_1
*I *193:A1 I *D gf180mcu_fd_sc_mcu7t5v0__and2_1
*I *172:A2 I *D gf180mcu_fd_sc_mcu7t5v0__oai21_1
*I *180:A1 I *D gf180mcu_fd_sc_mcu7t5v0__oai21_1
*I *176:A1 I *D gf180mcu_fd_sc_mcu7t5v0__oai21_1
*I *192:A1 I *D gf180mcu_fd_sc_mcu7t5v0__oai21_1
*I *177:A1 I *D gf180mcu_fd_sc_mcu7t5v0__nand2_1
*I *182:A1 I *D gf180mcu_fd_sc_mcu7t5v0__oai21_1
*I *174:A1 I *D gf180mcu_fd_sc_mcu7t5v0__oai21_1
*I *179:A1 I *D gf180mcu_fd_sc_mcu7t5v0__nand2_1
*I *178:A1 I *D gf180mcu_fd_sc_mcu7t5v0__oai21_1
*I *171:A2 I *D gf180mcu_fd_sc_mcu7t5v0__nand2_1
*I *183:A1 I *D gf180mcu_fd_sc_mcu7t5v0__nand2_1
*I *214:Z O *D gf180mcu_fd_sc_mcu7t5v0__dlyb_1
*CAP
1 *185:A1 0
2 *184:A1 0.000116694
3 *187:A1 0.000149784
4 *189:A1 0.000113346
5 *190:A1 0
6 *191:A1 0
7 *188:A1 0
8 *175:A1 1.61028e-05
9 *173:A1 9.73245e-06
10 *181:A1 1.60731e-05
11 *186:A1 0
12 *193:A1 0
13 *172:A2 0
14 *180:A1 1.20575e-05
15 *176:A1 0.000106525
16 *192:A1 0.000124752
17 *177:A1 1.17932e-05
18 *182:A1 0.00014139
19 *174:A1 0
20 *179:A1 0.00011173
21 *178:A1 0.000313357
22 *171:A2 0.000184569
23 *183:A1 2.88537e-05
24 *214:Z 7.21224e-05
25 *60:269 0.000194325
26 *60:230 0.000695905
27 *60:226 0.000760931
28 *60:219 0.000212864
29 *60:206 0.000422895
30 *60:191 0.000400949
31 *60:178 0.000249166
32 *60:167 0.000382997
33 *60:156 0.000309729
34 *60:124 0.000256291
35 *60:104 0.000356563
36 *60:98 0.000672651
37 *60:73 0.000537696
38 *60:69 0.000599501
39 *60:50 0.000815723
40 *60:44 0.000848835
41 *60:38 0.000483971
42 *60:23 0.000348701
43 *60:12 0.000141788
44 *60:10 0.000200047
45 *171:A2 *171:A1 9.88736e-06
46 *171:A2 *181:A2 0.000185708
47 *173:A1 *167:I 2.23385e-05
48 *173:A1 *173:A2 3.08902e-05
49 *175:A1 *175:A2 3.08902e-05
50 *176:A1 *167:I 7.886e-05
51 *176:A1 *61:27 0.000126956
52 *177:A1 *175:A2 1.2339e-05
53 *177:A1 *177:A2 2.6126e-05
54 *180:A1 *162:I 5.05079e-05
55 *181:A1 *161:I 8.55242e-05
56 *187:A1 *163:I 0.000216039
57 *187:A1 *165:I 0.000168675
58 *187:A1 *170:I 8.78761e-05
59 *187:A1 *191:A2 7.94759e-05
60 *192:A1 *61:10 1.18942e-05
61 *192:A1 *61:14 2.10698e-05
62 *60:10 *204:RN 9.45347e-06
63 *60:23 *181:A2 6.69323e-06
64 *60:38 *181:A2 0.000103763
65 *60:50 *161:I 0
66 *60:50 *167:I 3.42287e-06
67 *60:50 *61:48 2.54844e-05
68 *60:98 *61:14 0.000262996
69 *60:104 *162:I 0.000317494
70 *60:104 *175:A2 5.48455e-05
71 *60:104 *61:14 3.78197e-05
72 *60:124 *162:I 0.000737205
73 *60:124 *175:A2 0.000115136
74 *60:167 *166:I 0.000358099
75 *60:167 *181:A2 0.000617232
76 *60:178 *166:I 0.000317381
77 *60:191 *166:I 0.000498804
78 *60:206 *166:I 3.9169e-05
79 *60:219 *165:I 8.55327e-05
80 *60:219 *166:I 0
81 *60:219 *170:I 9.50296e-06
82 *60:219 *191:A2 3.73627e-05
83 *60:226 *165:I 0.00017019
84 *60:226 *191:A2 8.18282e-05
85 *60:230 *170:I 0.000308225
86 *172:A1 *60:50 0.000161672
87 *172:B *60:73 0.000118634
88 *174:A2 *181:A1 2.96621e-05
89 *174:A2 *182:A1 0.000340793
90 *174:A2 *60:50 0.000160795
91 *176:A2 *173:A1 8.55242e-05
92 *178:A2 *177:A1 8.55327e-05
93 *178:A2 *178:A1 0.000183247
94 *178:A2 *192:A1 1.20889e-05
95 *178:A2 *60:73 0
96 *178:A2 *60:98 0
97 *178:A2 *60:104 0.000132711
98 *178:B *178:A1 5.90849e-05
99 *178:B *179:A1 4.03461e-05
100 *178:B *60:73 0
101 *180:A2 *175:A1 8.55242e-05
102 *180:A2 *60:206 0.000405409
103 *180:B *176:A1 0
104 *180:B *179:A1 0.000194624
105 *180:B *60:73 4.05529e-05
106 *182:A2 *176:A1 0.000463903
107 *182:A2 *187:A1 0.000391795
108 *182:B *60:38 1.77333e-05
109 *183:A2 *60:12 5.75752e-06
110 *183:A2 *60:269 3.84832e-06
111 *184:A2 *60:38 0.000133969
112 *184:A2 *60:156 9.88736e-06
113 *184:A2 *60:167 4.725e-05
114 *184:B *183:A1 1.02578e-05
115 *184:B *184:A1 0.000192331
116 *184:B *60:269 9.0178e-05
117 *185:A2 *60:10 5.23469e-05
118 *185:A2 *60:269 2.96621e-05
119 *186:A2 *60:167 9.88736e-06
120 *186:B *60:12 7.83779e-05
121 *186:B *60:269 0.000372137
122 *187:A2 *187:A1 0
123 *188:B *187:A1 0.000245342
124 *190:A2 *60:230 0
125 *192:A2 *60:206 6.37951e-05
126 *192:A2 *60:219 6.04092e-05
127 *194:D *178:A1 0
128 *194:D *179:A1 0.000317494
129 *194:D *182:A1 2.6126e-05
130 *194:CLK *179:A1 0.00032464
131 *194:CLK *182:A1 0.000750705
132 *194:CLK *60:44 2.23812e-05
133 *194:CLK *60:50 1.31712e-06
134 *195:D *176:A1 7.3227e-05
135 *195:CLK *60:98 0.000252989
136 *197:D *180:A1 7.3227e-05
137 *197:D *60:124 0.000134622
138 *198:D *60:44 4.448e-05
139 *199:D *171:A2 0.000294409
140 *199:D *184:A1 2.57971e-05
141 *199:D *60:10 0.000396904
142 *199:D *60:269 5.75052e-05
143 *199:CLK *171:A2 0.000105545
144 *200:D *60:44 8.52842e-06
145 *201:CLK *175:A1 1.65795e-06
146 *204:D *60:44 6.6185e-05
147 *204:D *60:50 2.9378e-06
148 *204:D *60:156 6.48311e-06
149 *204:D *60:167 1.17512e-05
150 *204:CLK *60:167 8.2395e-06
151 *205:D *176:A1 0
152 *205:D *60:73 1.30303e-05
153 *205:D *60:98 8.65608e-05
154 *206:I *175:A1 2.9378e-06
155 *206:I *60:206 0.00022866
156 *216:I *189:A1 0.000147092
157 *216:I *60:230 7.09482e-05
158 *217:I *60:230 2.11881e-05
159 *221:I *192:A1 6.61664e-05
160 *54:8 *171:A2 6.04444e-06
161 *54:8 *60:38 5.70962e-05
162 *54:10 *171:A2 0.000150534
163 *54:43 *60:12 9.17202e-06
164 *54:43 *60:23 3.13605e-05
165 *54:43 *60:44 7.72307e-05
166 *54:43 *60:156 6.45995e-06
*RES
1 *214:Z *60:10 14.488 
2 *60:10 *60:12 0.38 
3 *60:12 *183:A1 4.728 
4 *60:12 *60:23 4.88 
5 *60:23 *171:A2 11.432 
6 *60:23 *60:38 5.488 
7 *60:38 *60:44 2.204 
8 *60:44 *60:50 3.572 
9 *60:50 *178:A1 7.236 
10 *60:50 *60:69 4.5 
11 *60:69 *60:73 6.096 
12 *60:73 *179:A1 6.552 
13 *60:73 *174:A1 4.5 
14 *60:73 *182:A1 6.932 
15 *60:69 *60:98 7.312 
16 *60:98 *60:104 6.628 
17 *60:104 *177:A1 9.228 
18 *60:104 *192:A1 9.988 
19 *60:98 *60:124 2.052 
20 *60:124 *176:A1 15.02 
21 *60:124 *180:A1 4.728 
22 *60:50 *172:A2 4.5 
23 *60:44 *193:A1 4.5 
24 *60:38 *60:156 0.228 
25 *60:156 *186:A1 4.5 
26 *60:156 *60:167 6.78 
27 *60:167 *181:A1 9.228 
28 *60:167 *60:178 0.836 
29 *60:178 *173:A1 9.228 
30 *60:178 *60:191 5.792 
31 *60:191 *175:A1 4.728 
32 *60:191 *60:206 7.16 
33 *60:206 *188:A1 9 
34 *60:206 *60:219 5.868 
35 *60:219 *191:A1 4.5 
36 *60:219 *60:226 0.532 
37 *60:226 *60:230 8.528 
38 *60:230 *190:A1 9 
39 *60:230 *189:A1 10.14 
40 *60:226 *187:A1 16.008 
41 *60:10 *60:269 1.52 
42 *60:269 *184:A1 5.792 
43 *60:269 *185:A1 4.5 
*END

*D_NET *61 0.0193051
*CONN
*I *203:RN I *D gf180mcu_fd_sc_mcu7t5v0__dffrnq_1
*I *198:RN I *D gf180mcu_fd_sc_mcu7t5v0__dffrnq_1
*I *201:RN I *D gf180mcu_fd_sc_mcu7t5v0__dffrnq_1
*I *202:RN I *D gf180mcu_fd_sc_mcu7t5v0__dffrnq_1
*I *197:RN I *D gf180mcu_fd_sc_mcu7t5v0__dffrnq_1
*I *196:RN I *D gf180mcu_fd_sc_mcu7t5v0__dffrnq_1
*I *195:RN I *D gf180mcu_fd_sc_mcu7t5v0__dffrnq_1
*I *205:RN I *D gf180mcu_fd_sc_mcu7t5v0__dffrnq_1
*I *200:RN I *D gf180mcu_fd_sc_mcu7t5v0__dffrnq_1
*I *204:RN I *D gf180mcu_fd_sc_mcu7t5v0__dffrnq_1
*I *199:RN I *D gf180mcu_fd_sc_mcu7t5v0__dffrnq_1
*I *194:RN I *D gf180mcu_fd_sc_mcu7t5v0__dffrnq_1
*I *215:Z O *D gf180mcu_fd_sc_mcu7t5v0__dlyb_1
*CAP
1 *203:RN 0.000396768
2 *198:RN 4.66628e-05
3 *201:RN 0.000182586
4 *202:RN 0
5 *197:RN 0
6 *196:RN 2.92489e-05
7 *195:RN 0
8 *205:RN 0
9 *200:RN 0.000240811
10 *204:RN 0.000624264
11 *199:RN 0
12 *194:RN 0.000121687
13 *215:Z 0.000226417
14 *61:122 0.000911541
15 *61:104 0.000665075
16 *61:97 0.00057616
17 *61:88 0.00012292
18 *61:86 0.000666635
19 *61:48 0.00207944
20 *61:31 0.00151962
21 *61:27 0.000569036
22 *61:14 0.00053934
23 *61:10 0.000308617
24 *61:8 0.000579684
25 *194:RN *162:I 5.54728e-05
26 *200:RN *162:I 8.55327e-05
27 *200:RN *166:I 5.83596e-05
28 *201:RN *170:I 0
29 *204:RN *160:I 0.000118466
30 *204:RN *181:A2 0
31 *61:27 *162:I 2.7516e-05
32 *61:48 *161:I 0
33 *61:104 *164:I 0
34 *61:104 *170:I 0
35 *172:A1 *61:31 1.15966e-05
36 *176:A1 *61:27 0.000126956
37 *176:A2 *200:RN 8.55327e-05
38 *180:B *61:27 0.000194266
39 *180:B *61:31 0
40 *182:A2 *61:27 4.4998e-05
41 *182:A2 *61:31 0.000156831
42 *182:A2 *61:48 7.26757e-05
43 *185:A2 *204:RN 0.000352856
44 *192:A1 *61:10 1.18942e-05
45 *192:A1 *61:14 2.10698e-05
46 *192:B *61:8 7.57767e-05
47 *195:D *61:27 0.00013821
48 *195:CLK *61:10 0.000385478
49 *195:CLK *61:14 0.00100472
50 *196:D *198:RN 6.68164e-05
51 *196:D *203:RN 1.76898e-05
52 *197:D *203:RN 0.000147305
53 *197:D *61:86 0
54 *197:D *61:122 0
55 *198:D *196:RN 7.71175e-06
56 *198:D *61:97 0.000564624
57 *198:D *61:104 0.00065248
58 *198:CLK *61:8 0.000379274
59 *198:CLK *61:97 2.73945e-05
60 *199:D *204:RN 0
61 *202:CLK *203:RN 0.00017553
62 *203:D *61:10 0
63 *203:D *61:86 0
64 *203:D *61:97 0.000147313
65 *203:D *61:104 0.000740856
66 *204:CLK *200:RN 0.000321171
67 *204:CLK *204:RN 0.000394301
68 *206:I *200:RN 0.000473477
69 *206:I *204:RN 0.000337496
70 *215:I *61:122 5.62195e-05
71 *217:I *201:RN 0
72 *217:I *61:104 0
73 *221:I *203:RN 0
74 *221:I *61:10 0
75 *221:I *61:86 0
76 *221:I *61:122 0.000102028
77 *222:I *198:RN 0.000255714
78 *222:I *203:RN 0.000608136
79 *55:65 *203:RN 5.91189e-05
80 *60:10 *204:RN 9.45347e-06
81 *60:50 *61:48 2.54844e-05
82 *60:98 *61:14 0.000262996
83 *60:104 *61:14 3.78197e-05
*RES
1 *215:Z *61:8 10.9 
2 *61:8 *61:10 1.444 
3 *61:10 *61:14 7.008 
4 *61:14 *194:RN 5.184 
5 *61:14 *61:27 7.084 
6 *61:27 *61:31 6.248 
7 *61:31 *199:RN 4.5 
8 *61:31 *61:48 17.832 
9 *61:48 *204:RN 14.472 
10 *61:48 *200:RN 12.04 
11 *61:27 *205:RN 9 
12 *61:10 *195:RN 9 
13 *61:8 *61:86 1.14 
14 *61:86 *61:88 4.5 
15 *61:88 *196:RN 4.728 
16 *61:88 *61:97 1.444 
17 *61:97 *197:RN 4.5 
18 *61:97 *61:104 4.484 
19 *61:104 *202:RN 4.5 
20 *61:104 *201:RN 5.564 
21 *61:86 *61:122 7.768 
22 *61:122 *198:RN 5.184 
23 *61:122 *203:RN 8.224 
*END

*D_NET *62 0.0026481
*CONN
*I *224:I I *D gf180mcu_fd_sc_mcu7t5v0__dlyb_1
*I *203:Q O *D gf180mcu_fd_sc_mcu7t5v0__dffrnq_1
*CAP
1 *224:I 0.000718567
2 *203:Q 0.000718567
3 *224:I *166:I 0.000171918
4 *224:I *189:A2 0.000133747
5 serial_out *224:I 9.92271e-06
6 *190:A2 *224:I 2.40867e-05
7 *190:B *224:I 7.50749e-05
8 *202:D *224:I 5.64131e-05
9 *202:CLK *224:I 0.000725285
10 *216:I *224:I 1.45141e-05
*RES
1 *203:Q *224:I 14.928 
*END

*D_NET *63 0.000888171
*CONN
*I *189:A2 I *D gf180mcu_fd_sc_mcu7t5v0__nand2_1
*I *216:Z O *D gf180mcu_fd_sc_mcu7t5v0__dlyb_1
*CAP
1 *189:A2 0.000336096
2 *216:Z 0.000336096
3 serial_out *189:A2 8.22324e-05
4 *224:I *189:A2 0.000133747
*RES
1 *216:Z *189:A2 11.584 
*END

*D_NET *64 0.00165773
*CONN
*I *191:A2 I *D gf180mcu_fd_sc_mcu7t5v0__nand2_1
*I *217:Z O *D gf180mcu_fd_sc_mcu7t5v0__dlyb_1
*CAP
1 *191:A2 0.000365966
2 *217:Z 0.000365966
3 *191:A2 *163:I 0.000540457
4 *191:A2 *164:I 1.3493e-05
5 *191:A2 *165:I 6.92741e-05
6 *191:A2 *169:I 0.000103908
7 *187:A1 *191:A2 7.94759e-05
8 *187:A2 *191:A2 0
9 *192:B *191:A2 0
10 *60:219 *191:A2 3.73627e-05
11 *60:226 *191:A2 8.18282e-05
*RES
1 *217:Z *191:A2 12.268 
*END

*D_NET *65 0.00294288
*CONN
*I *171:A1 I *D gf180mcu_fd_sc_mcu7t5v0__nand2_1
*I *218:Z O *D gf180mcu_fd_sc_mcu7t5v0__dlyb_1
*CAP
1 *171:A1 0.000551862
2 *218:Z 0.000551862
3 *171:A1 *173:A2 0.000147129
4 *171:A1 *181:A2 8.02751e-06
5 *171:A2 *171:A1 9.88736e-06
6 *172:A1 *171:A1 1.7295e-05
7 *172:B *171:A1 0.00125815
8 *180:B *171:A1 0
9 *199:D *171:A1 0.000252329
10 *210:I *171:A1 0
11 *218:I *171:A1 0.000140396
12 *219:I *171:A1 5.94708e-06
*RES
1 *218:Z *171:A1 15.156 
*END

*D_NET *66 0.00552308
*CONN
*I *173:A2 I *D gf180mcu_fd_sc_mcu7t5v0__nand2_1
*I *219:Z O *D gf180mcu_fd_sc_mcu7t5v0__dlyb_1
*CAP
1 *173:A2 0.000845027
2 *219:Z 0.000845027
3 *173:A2 *167:I 0.000765514
4 *171:A1 *173:A2 0.000147129
5 *172:A1 *173:A2 0
6 *172:B *173:A2 0.000379503
7 *173:A1 *173:A2 3.08902e-05
8 *174:A2 *173:A2 0.000609763
9 *174:B *173:A2 0.00029449
10 *176:A2 *173:A2 0.000318975
11 *180:B *173:A2 0
12 *182:A2 *173:A2 0.000193508
13 *193:A2 *173:A2 0.00109326
*RES
1 *219:Z *173:A2 27.956 
*END

*D_NET *67 0.00264525
*CONN
*I *175:A2 I *D gf180mcu_fd_sc_mcu7t5v0__nand2_1
*I *220:Z O *D gf180mcu_fd_sc_mcu7t5v0__dlyb_1
*CAP
1 *175:A2 0.000873993
2 *220:Z 0.000873993
3 *175:A2 *162:I 3.50624e-05
4 *175:A2 *177:A2 7.45062e-05
5 *175:A1 *175:A2 3.08902e-05
6 *177:A1 *175:A2 1.2339e-05
7 *178:A2 *175:A2 0.000141196
8 *180:A2 *175:A2 0.000196224
9 *197:D *175:A2 3.68758e-05
10 *201:CLK *175:A2 0.000200186
11 *206:I *175:A2 0
12 *60:104 *175:A2 5.48455e-05
13 *60:124 *175:A2 0.000115136
*RES
1 *220:Z *175:A2 15.612 
*END

*D_NET *68 0.00162134
*CONN
*I *177:A2 I *D gf180mcu_fd_sc_mcu7t5v0__nand2_1
*I *221:Z O *D gf180mcu_fd_sc_mcu7t5v0__dlyb_1
*CAP
1 *177:A2 0.000118979
2 *221:Z 0.000118979
3 *175:A2 *177:A2 7.45062e-05
4 *177:A1 *177:A2 2.6126e-05
5 *178:A2 *177:A2 4.24811e-05
6 *178:B *177:A2 0.00070032
7 *196:D *177:A2 0.000539951
*RES
1 *221:Z *177:A2 20.28 
*END

*D_NET *69 0.00540408
*CONN
*I *179:A2 I *D gf180mcu_fd_sc_mcu7t5v0__nand2_1
*I *222:Z O *D gf180mcu_fd_sc_mcu7t5v0__dlyb_1
*CAP
1 *179:A2 0.000919303
2 *222:Z 0.000919303
3 *178:B *179:A2 3.09035e-05
4 *196:D *179:A2 0.00351341
5 *215:I *179:A2 2.11524e-05
*RES
1 *222:Z *179:A2 28.032 
*END

*D_NET *70 0.0031502
*CONN
*I *181:A2 I *D gf180mcu_fd_sc_mcu7t5v0__nand2_1
*I *223:Z O *D gf180mcu_fd_sc_mcu7t5v0__dlyb_1
*CAP
1 *181:A2 0.000559776
2 *223:Z 0.000559776
3 *171:A1 *181:A2 8.02751e-06
4 *171:A2 *181:A2 0.000185708
5 *172:B *181:A2 0.000105765
6 *174:B *181:A2 1.27295e-05
7 *182:B *181:A2 2.6233e-05
8 *184:A2 *181:A2 0.000402297
9 *193:A2 *181:A2 3.08902e-05
10 *194:CLK *181:A2 7.35021e-06
11 *199:D *181:A2 0.000523959
12 *204:RN *181:A2 0
13 *204:CLK *181:A2 0
14 *54:43 *181:A2 0
15 *60:23 *181:A2 6.69323e-06
16 *60:38 *181:A2 0.000103763
17 *60:167 *181:A2 0.000617232
*RES
1 *223:Z *181:A2 23.472 
*END

*D_NET *71 0.00182583
*CONN
*I *160:I I *D gf180mcu_fd_sc_mcu7t5v0__clkinv_1
*I *204:Q O *D gf180mcu_fd_sc_mcu7t5v0__dffrnq_1
*CAP
1 *160:I 0.000500978
2 *204:Q 0.000500978
3 *183:A2 *160:I 0
4 *185:A2 *160:I 0
5 *199:D *160:I 0.000171927
6 *204:RN *160:I 0.000118466
7 *211:I *160:I 3.73627e-05
8 *212:I *160:I 0.000246974
9 *214:I *160:I 0.000171918
10 *223:I *160:I 7.72307e-05
*RES
1 *204:Q *160:I 13.484 
*END

*D_NET *72 0.00216441
*CONN
*I *170:I I *D gf180mcu_fd_sc_mcu7t5v0__clkinv_1
*I *202:Q O *D gf180mcu_fd_sc_mcu7t5v0__dffrnq_1
*CAP
1 *170:I 0.00035151
2 *202:Q 0.00035151
3 *170:I *163:I 5.04842e-05
4 *170:I *164:I 0.000328743
5 *187:A1 *170:I 8.78761e-05
6 *190:A2 *170:I 2.69281e-06
7 *192:A2 *170:I 0.000659638
8 *201:RN *170:I 0
9 *206:I *170:I 1.42281e-05
10 *60:219 *170:I 9.50296e-06
11 *60:230 *170:I 0.000308225
12 *61:104 *170:I 0
*RES
1 *202:Q *170:I 21.648 
*END

*D_NET *73 0.00326969
*CONN
*I *161:I I *D gf180mcu_fd_sc_mcu7t5v0__clkinv_1
*I *205:Q O *D gf180mcu_fd_sc_mcu7t5v0__dffrnq_1
*CAP
1 *161:I 0.000553352
2 *205:Q 0.000553352
3 *161:I *167:I 0.000494294
4 *174:A2 *161:I 0.000925367
5 *176:B *161:I 0.000256181
6 *181:A1 *161:I 8.55242e-05
7 *182:B *161:I 0.000379283
8 *204:CLK *161:I 2.23385e-05
9 *60:50 *161:I 0
10 *61:48 *161:I 0
*RES
1 *205:Q *161:I 15.08 
*END

*D_NET *74 0.00511182
*CONN
*I *162:I I *D gf180mcu_fd_sc_mcu7t5v0__clkinv_1
*I *194:Q O *D gf180mcu_fd_sc_mcu7t5v0__dffrnq_1
*CAP
1 *162:I 0.000659878
2 *194:Q 0.000659878
3 *162:I *167:I 0
4 *174:B *162:I 0.000105692
5 *175:A2 *162:I 3.50624e-05
6 *176:A2 *162:I 0.000297124
7 *176:B *162:I 0.000486244
8 *180:A1 *162:I 5.05079e-05
9 *180:A2 *162:I 0.000881247
10 *180:B *162:I 0.000595303
11 *194:RN *162:I 5.54728e-05
12 *198:CLK *162:I 0.000117661
13 *200:RN *162:I 8.55327e-05
14 *60:104 *162:I 0.000317494
15 *60:124 *162:I 0.000737205
16 *61:27 *162:I 2.7516e-05
*RES
1 *194:Q *162:I 17.968 
*END

*D_NET *75 0.00639027
*CONN
*I *163:I I *D gf180mcu_fd_sc_mcu7t5v0__clkinv_1
*I *195:Q O *D gf180mcu_fd_sc_mcu7t5v0__dffrnq_1
*CAP
1 *163:I 0.000442248
2 *195:Q 0.000442248
3 *163:I *164:I 0.00294425
4 *163:I *165:I 3.40562e-05
5 *170:I *163:I 5.04842e-05
6 *178:A2 *163:I 0.000549757
7 *187:A1 *163:I 0.000216039
8 *187:A2 *163:I 0.000134564
9 *188:B *163:I 0.000125867
10 *191:A2 *163:I 0.000540457
11 *192:B *163:I 0.00060233
12 *195:CLK *163:I 0.000307966
*RES
1 *195:Q *163:I 27.5 
*END

*D_NET *76 0.00583954
*CONN
*I *164:I I *D gf180mcu_fd_sc_mcu7t5v0__clkinv_1
*I *196:Q O *D gf180mcu_fd_sc_mcu7t5v0__dffrnq_1
*CAP
1 *164:I 0.000895523
2 *196:Q 0.000895523
3 *164:I *165:I 7.32209e-05
4 *164:I *168:I 6.26869e-05
5 *164:I *169:I 2.87027e-05
6 *163:I *164:I 0.00294425
7 *170:I *164:I 0.000328743
8 *180:A2 *164:I 2.44046e-05
9 *190:A2 *164:I 0.00020133
10 *191:A2 *164:I 1.3493e-05
11 *198:CLK *164:I 0.000287443
12 *203:CLK *164:I 8.4224e-05
13 *61:104 *164:I 0
*RES
1 *196:Q *164:I 27.804 
*END

*D_NET *77 0.00528594
*CONN
*I *165:I I *D gf180mcu_fd_sc_mcu7t5v0__clkinv_1
*I *197:Q O *D gf180mcu_fd_sc_mcu7t5v0__dffrnq_1
*CAP
1 *165:I 0.000462096
2 *197:Q 0.000462096
3 *163:I *165:I 3.40562e-05
4 *164:I *165:I 7.32209e-05
5 *182:A2 *165:I 0.00075055
6 *187:A1 *165:I 0.000168675
7 *187:A2 *165:I 3.00299e-05
8 *191:A2 *165:I 6.92741e-05
9 *192:A2 *165:I 0.00173538
10 *192:B *165:I 0.00070399
11 *197:D *165:I 0.000378609
12 *198:CLK *165:I 7.32209e-05
13 *201:CLK *165:I 8.90185e-05
14 *60:219 *165:I 8.55327e-05
15 *60:226 *165:I 0.00017019
*RES
1 *197:Q *165:I 26.132 
*END

*D_NET *78 0.0070613
*CONN
*I *166:I I *D gf180mcu_fd_sc_mcu7t5v0__clkinv_1
*I *198:Q O *D gf180mcu_fd_sc_mcu7t5v0__dffrnq_1
*CAP
1 *166:I 0.00236618
2 *198:Q 0.00236618
3 *196:CLK *166:I 0.000118807
4 *200:RN *166:I 5.83596e-05
5 *202:CLK *166:I 0.000174101
6 *204:CLK *166:I 2.12988e-05
7 *206:I *166:I 0
8 *217:I *166:I 0.000101075
9 *222:I *166:I 4.71447e-05
10 *224:I *166:I 0.000171918
11 *53:13 *166:I 0.000323709
12 *55:65 *166:I 9.90744e-05
13 *60:167 *166:I 0.000358099
14 *60:178 *166:I 0.000317381
15 *60:191 *166:I 0.000498804
16 *60:206 *166:I 3.9169e-05
17 *60:219 *166:I 0
*RES
1 *198:Q *166:I 34.644 
*END

*D_NET *79 0.00421181
*CONN
*I *167:I I *D gf180mcu_fd_sc_mcu7t5v0__clkinv_1
*I *199:Q O *D gf180mcu_fd_sc_mcu7t5v0__dffrnq_1
*CAP
1 *167:I 0.000995159
2 *199:Q 0.000995159
3 *161:I *167:I 0.000494294
4 *162:I *167:I 0
5 *173:A1 *167:I 2.23385e-05
6 *173:A2 *167:I 0.000765514
7 *176:A1 *167:I 7.886e-05
8 *176:A2 *167:I 5.33989e-05
9 *176:B *167:I 0.000297994
10 *182:B *167:I 0.000379283
11 *195:D *167:I 1.38267e-05
12 *206:I *167:I 0.000112564
13 *60:50 *167:I 3.42287e-06
*RES
1 *199:Q *167:I 26.284 
*END

*D_NET *80 0.000940039
*CONN
*I *168:I I *D gf180mcu_fd_sc_mcu7t5v0__clkinv_1
*I *200:Q O *D gf180mcu_fd_sc_mcu7t5v0__dffrnq_1
*CAP
1 *168:I 0.000172746
2 *200:Q 0.000172746
3 *164:I *168:I 6.26869e-05
4 *178:A2 *168:I 1.15275e-05
5 *180:A2 *168:I 7.90146e-05
6 *188:A2 *168:I 0.000125838
7 *201:CLK *168:I 0.000305592
8 *206:I *168:I 9.88736e-06
*RES
1 *200:Q *168:I 10.976 
*END

*D_NET *81 0.00263967
*CONN
*I *169:I I *D gf180mcu_fd_sc_mcu7t5v0__clkinv_1
*I *201:Q O *D gf180mcu_fd_sc_mcu7t5v0__dffrnq_1
*CAP
1 *169:I 0.000337039
2 *201:Q 0.000337039
3 *164:I *169:I 2.87027e-05
4 *190:A2 *169:I 0.00134061
5 *191:A2 *169:I 0.000103908
6 *216:I *169:I 0.000246185
7 *217:I *169:I 0.000246185
*RES
1 *201:Q *169:I 22.104 
*END
