*SPEF "ieee 1481-1999"
*DESIGN "piso_12bit"
*DATE "09:55:01 Tuesday August 25, 2026"
*VENDOR "The OpenROAD Project"
*PROGRAM "OpenROAD"
*VERSION "26Q1-1024-gdcf36133a"
*DESIGN_FLOW "NAME_SCOPE LOCAL" "PIN_CAP NONE"
*DIVIDER /
*DELIMITER :
*BUS_DELIMITER []
*T_UNIT 1 NS
*C_UNIT 1 PF
*R_UNIT 1 OHM
*L_UNIT 1 HENRY

*NAME_MAP
*3 clk
*4 data_in[0]
*5 data_in[10]
*6 data_in[11]
*7 data_in[1]
*8 data_in[2]
*9 data_in[3]
*10 data_in[4]
*11 data_in[5]
*12 data_in[6]
*13 data_in[7]
*14 data_in[8]
*15 data_in[9]
*16 load_en
*17 rst_n
*18 serial_out
*19 _00_
*20 _01_
*21 _02_
*22 _03_
*23 _04_
*24 _05_
*25 _06_
*26 _07_
*27 _08_
*28 _09_
*29 _10_
*30 _11_
*31 _12_
*32 _13_
*33 _14_
*34 _15_
*35 _16_
*36 _17_
*37 _18_
*38 _19_
*39 _20_
*40 _21_
*41 _22_
*42 _23_
*43 _24_
*44 _25_
*45 _26_
*46 _27_
*47 _28_
*48 _29_
*49 _30_
*50 _31_
*51 _32_
*52 _33_
*53 clknet_0_clk
*54 clknet_1_0__leaf_clk
*55 clknet_1_1__leaf_clk
*56 net1
*57 net10
*58 net11
*59 net12
*60 net13
*61 net14
*62 net15
*63 net2
*64 net3
*65 net4
*66 net5
*67 net6
*68 net7
*69 net8
*70 net9
*71 shift_reg\[0\]
*72 shift_reg\[10\]
*73 shift_reg\[1\]
*74 shift_reg\[2\]
*75 shift_reg\[3\]
*76 shift_reg\[4\]
*77 shift_reg\[5\]
*78 shift_reg\[6\]
*79 shift_reg\[7\]
*80 shift_reg\[8\]
*81 shift_reg\[9\]
*82 FILLER_0_104
*83 FILLER_0_106
*84 FILLER_0_18
*85 FILLER_0_20
*86 FILLER_10_104
*87 FILLER_10_106
*88 FILLER_10_2
*89 FILLER_10_36
*90 FILLER_10_52
*91 FILLER_1_106
*92 FILLER_1_18
*93 FILLER_1_20
*94 FILLER_1_55
*95 FILLER_2_18
*96 FILLER_3_106
*97 FILLER_4_34
*98 FILLER_4_37
*99 FILLER_5_106
*100 FILLER_5_2
*101 FILLER_5_69
*102 FILLER_6_47
*103 FILLER_6_49
*104 FILLER_7_106
*105 FILLER_8_103
*106 FILLER_8_26
*107 FILLER_8_28
*108 FILLER_8_33
*109 FILLER_8_41
*110 FILLER_8_45
*111 FILLER_8_47
*112 FILLER_9_2
*113 FILLER_9_38
*114 FILLER_9_46
*115 FILLER_9_50
*116 FILLER_9_60
*117 FILLER_9_72
*118 FILLER_9_74
*119 PHY_EDGE_ROW_0_Left_11
*120 PHY_EDGE_ROW_0_Right_0
*121 PHY_EDGE_ROW_10_Left_21
*122 PHY_EDGE_ROW_10_Right_10
*123 PHY_EDGE_ROW_1_Left_12
*124 PHY_EDGE_ROW_1_Right_1
*125 PHY_EDGE_ROW_2_Left_13
*126 PHY_EDGE_ROW_2_Right_2
*127 PHY_EDGE_ROW_3_Left_14
*128 PHY_EDGE_ROW_3_Right_3
*129 PHY_EDGE_ROW_4_Left_15
*130 PHY_EDGE_ROW_4_Right_4
*131 PHY_EDGE_ROW_5_Left_16
*132 PHY_EDGE_ROW_5_Right_5
*133 PHY_EDGE_ROW_6_Left_17
*134 PHY_EDGE_ROW_6_Right_6
*135 PHY_EDGE_ROW_7_Left_18
*136 PHY_EDGE_ROW_7_Right_7
*137 PHY_EDGE_ROW_8_Left_19
*138 PHY_EDGE_ROW_8_Right_8
*139 PHY_EDGE_ROW_9_Left_20
*140 PHY_EDGE_ROW_9_Right_9
*141 TAP_TAPCELL_ROW_0_22
*142 TAP_TAPCELL_ROW_0_23
*143 TAP_TAPCELL_ROW_0_24
*144 TAP_TAPCELL_ROW_10_38
*145 TAP_TAPCELL_ROW_10_39
*146 TAP_TAPCELL_ROW_10_40
*147 TAP_TAPCELL_ROW_1_25
*148 TAP_TAPCELL_ROW_2_26
*149 TAP_TAPCELL_ROW_2_27
*150 TAP_TAPCELL_ROW_3_28
*151 TAP_TAPCELL_ROW_4_29
*152 TAP_TAPCELL_ROW_4_30
*153 TAP_TAPCELL_ROW_5_31
*154 TAP_TAPCELL_ROW_6_32
*155 TAP_TAPCELL_ROW_6_33
*156 TAP_TAPCELL_ROW_7_34
*157 TAP_TAPCELL_ROW_8_35
*158 TAP_TAPCELL_ROW_8_36
*159 TAP_TAPCELL_ROW_9_37
*160 _34_
*161 _35_
*162 _36_
*163 _37_
*164 _38_
*165 _39_
*166 _40_
*167 _41_
*168 _42_
*169 _43_
*170 _44_
*171 _45_
*172 _46_
*173 _47_
*174 _48_
*175 _49_
*176 _50_
*177 _51_
*178 _52_
*179 _53_
*180 _54_
*181 _55_
*182 _56_
*183 _57_
*184 _58_
*185 _59_
*186 _60_
*187 _61_
*188 _62_
*189 _63_
*190 _64_
*191 _65_
*192 _66_
*193 _67_
*194 _68_
*195 _69_
*196 _70_
*197 _71_
*198 _72_
*199 _73_
*200 _74_
*201 _75_
*202 _76_
*203 _77_
*204 _78_
*205 _79_
*206 clkbuf_0_clk
*207 clkbuf_1_0__f_clk
*208 clkbuf_1_1__f_clk
*209 clkload0
*210 input1
*211 input10
*212 input11
*213 input12
*214 input13
*215 input14
*216 input2
*217 input3
*218 input4
*219 input5
*220 input6
*221 input7
*222 input8
*223 input9
*224 output15

*PORTS
clk I
data_in[0] I
data_in[10] I
data_in[11] I
data_in[1] I
data_in[2] I
data_in[3] I
data_in[4] I
data_in[5] I
data_in[6] I
data_in[7] I
data_in[8] I
data_in[9] I
load_en I
rst_n I
serial_out O

*D_NET *3 0.00612836
*CONN
*P clk I
*I *206:I I *D gf180mcu_fd_sc_mcu7t5v0__clkbuf_16
*CAP
1 clk 0.00200622
2 *206:I 0.00200622
3 *206:I *166:I 0
4 *206:I *167:I 0.000114007
5 *206:I *168:I 1.07369e-05
6 *206:I *170:I 1.53192e-05
7 *206:I *175:A1 2.81522e-06
8 *206:I *175:A2 0
9 *206:I *180:A2 3.50983e-05
10 *206:I *192:A2 6.35093e-06
11 *206:I *200:RN 0.00053027
12 *206:I *201:CLK 0.000161627
13 *206:I *204:RN 0.000364168
14 *206:I *212:I 0.000620111
15 *206:I *60:206 0.000255411
*RES
1 clk *206:I 26.004 
*END

*D_NET *4 0.00171593
*CONN
*P data_in[0] I
*I *210:I I *D gf180mcu_fd_sc_mcu7t5v0__dlyb_1
*CAP
1 data_in[0] 0.000399364
2 *210:I 0.000399364
3 *210:I *171:A1 0
4 *210:I *172:A1 1.07369e-05
5 *210:I *219:I 0.000906468
*RES
1 data_in[0] *210:I 13.732 
*END

*D_NET *5 0.00420192
*CONN
*P data_in[10] I
*I *216:I I *D gf180mcu_fd_sc_mcu7t5v0__dlyb_1
*CAP
1 data_in[10] 0.000600163
2 *216:I 0.000600163
3 *216:I serial_out 0.000592475
4 *216:I *169:I 0.000325466
5 *216:I *189:A1 0.00016121
6 *216:I *190:A2 0.000419265
7 *216:I *202:D 3.30212e-05
8 *216:I *213:I 0
9 *216:I *217:I 0.00137716
10 *216:I *224:I 1.5399e-05
11 *216:I *60:230 7.75984e-05
*RES
1 data_in[10] *216:I 19.348 
*END

*D_NET *6 0.00358663
*CONN
*P data_in[11] I
*I *217:I I *D gf180mcu_fd_sc_mcu7t5v0__dlyb_1
*CAP
1 data_in[11] 0.000877308
2 *217:I 0.000877308
3 *217:I *166:I 0.000107343
4 *217:I *169:I 0.000325466
5 *217:I *201:RN 0
6 *217:I *202:D 0
7 *217:I *60:230 2.20458e-05
8 *217:I *61:104 0
9 *216:I *217:I 0.00137716
*RES
1 data_in[11] *217:I 19.14 
*END

*D_NET *7 0.00255939
*CONN
*P data_in[1] I
*I *218:I I *D gf180mcu_fd_sc_mcu7t5v0__dlyb_1
*CAP
1 data_in[1] 0.000609384
2 *218:I 0.000609384
3 *218:I *171:A1 0.000145846
4 *218:I *172:A1 4.17589e-06
5 *218:I *219:I 0.0011906
*RES
1 data_in[1] *218:I 16.228 
*END

*D_NET *8 0.00255051
*CONN
*P data_in[2] I
*I *219:I I *D gf180mcu_fd_sc_mcu7t5v0__dlyb_1
*CAP
1 data_in[2] 0.000223808
2 *219:I 0.000223808
3 *219:I *171:A1 5.81897e-06
4 *210:I *219:I 0.000906468
5 *218:I *219:I 0.0011906
*RES
1 data_in[2] *219:I 14.564 
*END

*D_NET *9 0.00175205
*CONN
*P data_in[3] I
*I *220:I I *D gf180mcu_fd_sc_mcu7t5v0__dlyb_1
*CAP
1 data_in[3] 0.000876024
2 *220:I 0.000876024
*RES
1 data_in[3] *220:I 11.624 
*END

*D_NET *10 0.00846556
*CONN
*P data_in[4] I
*I *221:I I *D gf180mcu_fd_sc_mcu7t5v0__dlyb_1
*CAP
1 data_in[4] 0.00168417
2 *221:I 0.00168417
3 *221:I *178:A2 0.00152786
4 *221:I *178:B 0.00150403
5 *221:I *192:A1 7.06999e-05
6 *221:I *196:D 0.000955808
7 *221:I *203:RN 0
8 *221:I *215:I 0.000929714
9 *221:I *61:10 0
10 *221:I *61:86 0
11 *221:I *61:122 0.000109104
*RES
1 data_in[4] *221:I 38.748 
*END

*D_NET *11 0.00360752
*CONN
*P data_in[5] I
*I *222:I I *D gf180mcu_fd_sc_mcu7t5v0__dlyb_1
*CAP
1 data_in[5] 0.000846731
2 *222:I 0.000846731
3 *222:I *166:I 4.83913e-05
4 *222:I *196:D 0.000119299
5 *222:I *196:CLK 0.000214037
6 *222:I *198:RN 0.000337769
7 *222:I *203:RN 0.000803903
8 *222:I *215:I 0.000331721
9 *222:I *55:65 5.89368e-05
*RES
1 data_in[5] *222:I 18.828 
*END

*D_NET *12 0.00224364
*CONN
*P data_in[6] I
*I *223:I I *D gf180mcu_fd_sc_mcu7t5v0__dlyb_1
*CAP
1 data_in[6] 0.000591632
2 *223:I 0.000591632
3 *223:I *160:I 8.52848e-05
4 *223:I *172:A1 0.000191473
5 *223:I *199:D 3.32328e-05
6 *223:I *199:CLK 0.000750383
7 *223:I *214:I 0
*RES
1 data_in[6] *223:I 14.98 
*END

*D_NET *13 0.00134561
*CONN
*P data_in[7] I
*I *211:I I *D gf180mcu_fd_sc_mcu7t5v0__dlyb_1
*CAP
1 data_in[7] 6.82441e-05
2 *211:I 6.82441e-05
3 *211:I *160:I 4.18157e-05
4 *211:I *212:I 0.000583651
5 *211:I *214:I 0.000583651
*RES
1 data_in[7] *211:I 12.692 
*END

*D_NET *14 0.00185011
*CONN
*P data_in[8] I
*I *212:I I *D gf180mcu_fd_sc_mcu7t5v0__dlyb_1
*CAP
1 data_in[8] 0.000159562
2 *212:I 0.000159562
3 *212:I *160:I 0.000327222
4 *206:I *212:I 0.000620111
5 *211:I *212:I 0.000583651
*RES
1 data_in[8] *212:I 13.524 
*END

*D_NET *15 0.00268039
*CONN
*P data_in[9] I
*I *213:I I *D gf180mcu_fd_sc_mcu7t5v0__dlyb_1
*CAP
1 data_in[9] 0.0013402
2 *213:I 0.0013402
3 *216:I *213:I 0
*RES
1 data_in[9] *213:I 24.368 
*END

*D_NET *16 0.00151783
*CONN
*P load_en I
*I *214:I I *D gf180mcu_fd_sc_mcu7t5v0__dlyb_1
*CAP
1 load_en 0.000370205
2 *214:I 0.000370205
3 *214:I *160:I 0.00019377
4 *211:I *214:I 0.000583651
5 *223:I *214:I 0
*RES
1 load_en *214:I 13.732 
*END

*D_NET *17 0.00390705
*CONN
*P rst_n I
*I *215:I I *D gf180mcu_fd_sc_mcu7t5v0__dlyb_1
*CAP
1 rst_n 0.00102568
2 *215:I 0.00102568
3 *215:I *179:A2 2.16732e-05
4 *215:I *197:D 0.000284128
5 *215:I *198:D 0.000228466
6 *215:I *61:122 5.99851e-05
7 *221:I *215:I 0.000929714
8 *222:I *215:I 0.000331721
*RES
1 rst_n *215:I 21.22 
*END

*D_NET *18 0.00163011
*CONN
*P serial_out O
*I *224:Z O *D gf180mcu_fd_sc_mcu7t5v0__dlyb_1
*CAP
1 serial_out 0.000470071
2 *224:Z 0.000470071
3 serial_out *189:A2 8.75081e-05
4 serial_out *224:I 9.98468e-06
5 *216:I serial_out 0.000592475
*RES
1 *224:Z serial_out 14.356 
*END

*D_NET *19 0.00306784
*CONN
*I *204:D I *D gf180mcu_fd_sc_mcu7t5v0__dffrnq_1
*I *193:Z O *D gf180mcu_fd_sc_mcu7t5v0__and2_1
*CAP
1 *204:D 0.00113083
2 *193:Z 0.00113083
3 *204:D *174:A2 7.76574e-05
4 *204:D *186:A2 0.000510533
5 *204:D *204:CLK 0.000131862
6 *204:D *60:44 6.63529e-05
7 *204:D *60:50 2.81522e-06
8 *204:D *60:156 5.70116e-06
9 *204:D *60:167 1.12609e-05
*RES
1 *193:Z *204:D 17.112 
*END

*D_NET *20 0.000937074
*CONN
*I *202:D I *D gf180mcu_fd_sc_mcu7t5v0__dffrnq_1
*I *190:ZN O *D gf180mcu_fd_sc_mcu7t5v0__oai21_1
*CAP
1 *202:D 0.000418593
2 *190:ZN 0.000418593
3 *202:D *190:A2 7.87395e-06
4 *202:D *190:B 0
5 *202:D *224:I 5.8994e-05
6 *216:I *202:D 3.30212e-05
7 *217:I *202:D 0
*RES
1 *190:ZN *202:D 12.224 
*END

*D_NET *21 0.00465045
*CONN
*I *203:D I *D gf180mcu_fd_sc_mcu7t5v0__dffrnq_1
*I *192:ZN O *D gf180mcu_fd_sc_mcu7t5v0__oai21_1
*CAP
1 *203:D 0.000716034
2 *192:ZN 0.000716034
3 *203:D *178:A2 1.57479e-05
4 *203:D *192:A2 0.000965879
5 *203:D *192:B 0.000335913
6 *203:D *195:CLK 1.23331e-05
7 *203:D *197:D 0.000140126
8 *203:D *198:CLK 3.57634e-06
9 *203:D *203:CLK 6.75223e-05
10 *203:D *55:6 3.03268e-05
11 *203:D *55:14 0.000472831
12 *203:D *61:10 0
13 *203:D *61:86 0
14 *203:D *61:97 0.000194522
15 *203:D *61:104 0.000979604
*RES
1 *192:ZN *203:D 27.048 
*END

*D_NET *22 0.00473151
*CONN
*I *205:D I *D gf180mcu_fd_sc_mcu7t5v0__dffrnq_1
*I *172:ZN O *D gf180mcu_fd_sc_mcu7t5v0__oai21_1
*CAP
1 *205:D 0.000483344
2 *172:ZN 0.000483344
3 *205:D *176:A1 0
4 *205:D *178:A2 0.000116578
5 *205:D *180:B 0.00137606
6 *205:D *192:A2 0.000193782
7 *205:D *195:CLK 0.00197581
8 *205:D *197:D 0
9 *205:D *60:73 1.28577e-05
10 *205:D *60:98 8.97388e-05
*RES
1 *172:ZN *205:D 25.904 
*END

*D_NET *23 0.000798621
*CONN
*I *194:D I *D gf180mcu_fd_sc_mcu7t5v0__dffrnq_1
*I *174:ZN O *D gf180mcu_fd_sc_mcu7t5v0__oai21_1
*CAP
1 *194:D 0.00017238
2 *174:ZN 0.00017238
3 *194:D *178:A1 0
4 *194:D *179:A1 0.000419265
5 *194:D *182:A1 3.4596e-05
*RES
1 *174:ZN *194:D 10.664 
*END

*D_NET *24 0.001119
*CONN
*I *195:D I *D gf180mcu_fd_sc_mcu7t5v0__dffrnq_1
*I *176:ZN O *D gf180mcu_fd_sc_mcu7t5v0__oai21_1
*CAP
1 *195:D 0.000424798
2 *176:ZN 0.000424798
3 *195:D *167:I 1.39027e-05
4 *195:D *176:A1 9.76253e-05
5 *195:D *180:B 9.95819e-06
6 *195:D *61:27 0.000147922
*RES
1 *176:ZN *195:D 11.912 
*END

*D_NET *25 0.0086645
*CONN
*I *196:D I *D gf180mcu_fd_sc_mcu7t5v0__dffrnq_1
*I *178:ZN O *D gf180mcu_fd_sc_mcu7t5v0__oai21_1
*CAP
1 *196:D 0.000757683
2 *178:ZN 0.000757683
3 *196:D *177:A2 0.00070994
4 *196:D *178:B 0.000651063
5 *196:D *179:A2 0.00462219
6 *196:D *198:RN 7.16355e-05
7 *196:D *203:RN 1.91996e-05
8 *221:I *196:D 0.000955808
9 *222:I *196:D 0.000119299
*RES
1 *178:ZN *196:D 35.16 
*END

*D_NET *26 0.00402343
*CONN
*I *197:D I *D gf180mcu_fd_sc_mcu7t5v0__dffrnq_1
*I *180:ZN O *D gf180mcu_fd_sc_mcu7t5v0__oai21_1
*CAP
1 *197:D 0.00106716
2 *180:ZN 0.00106716
3 *197:D *165:I 0.000498816
4 *197:D *175:A2 3.76002e-05
5 *197:D *180:A1 9.76253e-05
6 *197:D *182:A2 0.00027627
7 *197:D *195:CLK 0
8 *197:D *198:D 0
9 *197:D *201:CLK 3.38845e-05
10 *197:D *203:RN 0.000194511
11 *197:D *55:14 0.000147601
12 *197:D *60:124 0.000178541
13 *197:D *61:86 0
14 *197:D *61:122 0
15 *203:D *197:D 0.000140126
16 *205:D *197:D 0
17 *215:I *197:D 0.000284128
*RES
1 *180:ZN *197:D 29.128 
*END

*D_NET *27 0.00895725
*CONN
*I *198:D I *D gf180mcu_fd_sc_mcu7t5v0__dffrnq_1
*I *182:ZN O *D gf180mcu_fd_sc_mcu7t5v0__oai21_1
*CAP
1 *198:D 0.00222334
2 *182:ZN 0.00222334
3 *198:D *174:B 0.000216321
4 *198:D *176:B 0.000667153
5 *198:D *182:B 0.0013336
6 *198:D *194:CLK 0.000106904
7 *198:D *196:RN 8.21146e-06
8 *198:D *198:CLK 0.000296668
9 *198:D *201:CLK 1.23243e-06
10 *198:D *60:44 4.40134e-05
11 *198:D *61:97 0.000745259
12 *198:D *61:104 0.000862747
13 *197:D *198:D 0
14 *215:I *198:D 0.000228466
*RES
1 *182:ZN *198:D 36.928 
*END

*D_NET *28 0.00523258
*CONN
*I *199:D I *D gf180mcu_fd_sc_mcu7t5v0__dffrnq_1
*I *184:ZN O *D gf180mcu_fd_sc_mcu7t5v0__oai21_1
*CAP
1 *199:D 0.000858519
2 *184:ZN 0.000858519
3 *199:D *160:I 0.000193782
4 *199:D *171:A1 0.000269581
5 *199:D *171:A2 0.000366174
6 *199:D *172:A1 0.000372758
7 *199:D *181:A2 0.000689386
8 *199:D *184:A1 2.60583e-05
9 *199:D *184:A2 0.000136
10 *199:D *186:B 0.000419265
11 *199:D *199:CLK 2.37133e-06
12 *199:D *200:CLK 7.22679e-05
13 *199:D *204:RN 0
14 *199:D *54:43 0.000346997
15 *199:D *60:10 0.00052233
16 *199:D *60:269 6.53438e-05
17 *223:I *199:D 3.32328e-05
*RES
1 *184:ZN *199:D 28.4 
*END

*D_NET *29 0.0010271
*CONN
*I *200:D I *D gf180mcu_fd_sc_mcu7t5v0__dffrnq_1
*I *186:ZN O *D gf180mcu_fd_sc_mcu7t5v0__oai21_1
*CAP
1 *200:D 0.000219342
2 *186:ZN 0.000219342
3 *200:D *184:A2 0.000458942
4 *200:D *186:A2 0.000121765
5 *200:D *60:44 7.70871e-06
*RES
1 *186:ZN *200:D 11.496 
*END

*D_NET *30 0.000883214
*CONN
*I *201:D I *D gf180mcu_fd_sc_mcu7t5v0__dffrnq_1
*I *188:ZN O *D gf180mcu_fd_sc_mcu7t5v0__oai21_1
*CAP
1 *201:D 0.000190211
2 *188:ZN 0.000190211
3 *201:D *178:A2 0.000338968
4 *201:D *188:A2 0.000163823
*RES
1 *188:ZN *201:D 10.7457 
*END

*D_NET *31 0.00351072
*CONN
*I *172:A1 I *D gf180mcu_fd_sc_mcu7t5v0__oai21_1
*I *160:ZN O *D gf180mcu_fd_sc_mcu7t5v0__clkinv_1
*CAP
1 *172:A1 0.00117207
2 *160:ZN 0.00117207
3 *172:A1 *171:A1 1.81504e-05
4 *172:A1 *172:B 0.000102411
5 *172:A1 *173:A2 0
6 *172:A1 *174:A2 1.80647e-05
7 *172:A1 *180:B 0.000147656
8 *172:A1 *182:A2 0
9 *172:A1 *199:CLK 0.00010905
10 *172:A1 *60:50 0.00018099
11 *172:A1 *61:31 1.11104e-05
12 *199:D *172:A1 0.000372758
13 *210:I *172:A1 1.07369e-05
14 *218:I *172:A1 4.17589e-06
15 *223:I *172:A1 0.000191473
*RES
1 *160:ZN *172:A1 27.672 
*END

*D_NET *32 0.00619608
*CONN
*I *174:A2 I *D gf180mcu_fd_sc_mcu7t5v0__oai21_1
*I *161:ZN O *D gf180mcu_fd_sc_mcu7t5v0__clkinv_1
*CAP
1 *174:A2 0.00111121
2 *161:ZN 0.00111121
3 *174:A2 *161:I 0.00117228
4 *174:A2 *173:A2 0.000807932
5 *174:A2 *181:A1 3.22108e-05
6 *174:A2 *182:A1 0.000382047
7 *174:A2 *182:A2 0.000814951
8 *174:A2 *194:CLK 1.25888e-05
9 *174:A2 *204:CLK 0.000476175
10 *174:A2 *60:50 0.000179745
11 *172:A1 *174:A2 1.80647e-05
12 *204:D *174:A2 7.76574e-05
*RES
1 *161:ZN *174:A2 29.96 
*END

*D_NET *33 0.00297685
*CONN
*I *176:A2 I *D gf180mcu_fd_sc_mcu7t5v0__oai21_1
*I *162:ZN O *D gf180mcu_fd_sc_mcu7t5v0__clkinv_1
*CAP
1 *176:A2 0.000596505
2 *162:ZN 0.000596505
3 *176:A2 *162:I 0.000335984
4 *176:A2 *167:I 5.41448e-05
5 *176:A2 *173:A1 0.000113016
6 *176:A2 *173:A2 0.000356459
7 *176:A2 *174:B 0.000780138
8 *176:A2 *198:CLK 3.10673e-05
9 *176:A2 *200:RN 0.000113027
*RES
1 *162:ZN *176:A2 15.656 
*END

*D_NET *34 0.00984398
*CONN
*I *178:A2 I *D gf180mcu_fd_sc_mcu7t5v0__oai21_1
*I *163:ZN O *D gf180mcu_fd_sc_mcu7t5v0__clkinv_1
*CAP
1 *178:A2 0.00202645
2 *163:ZN 0.00202645
3 *178:A2 *163:I 0.000726651
4 *178:A2 *168:I 1.23682e-05
5 *178:A2 *175:A2 0.000142564
6 *178:A2 *177:A1 0.000113027
7 *178:A2 *177:A2 4.81999e-05
8 *178:A2 *178:A1 0.000232245
9 *178:A2 *178:B 0.000368683
10 *178:A2 *182:A2 0.000204094
11 *178:A2 *188:A2 8.28242e-05
12 *178:A2 *188:B 0.000685067
13 *178:A2 *192:A1 1.27019e-05
14 *178:A2 *192:A2 8.38826e-05
15 *178:A2 *192:B 0
16 *178:A2 *201:CLK 0.000560566
17 *178:A2 *208:I 0.000193672
18 *178:A2 *53:13 0.000181498
19 *178:A2 *60:73 0
20 *178:A2 *60:98 0
21 *178:A2 *60:104 0.000143871
22 *201:D *178:A2 0.000338968
23 *203:D *178:A2 1.57479e-05
24 *205:D *178:A2 0.000116578
25 *221:I *178:A2 0.00152786
*RES
1 *163:ZN *178:A2 39.32 
*END

*D_NET *35 0.00404128
*CONN
*I *180:A2 I *D gf180mcu_fd_sc_mcu7t5v0__oai21_1
*I *164:ZN O *D gf180mcu_fd_sc_mcu7t5v0__clkinv_1
*CAP
1 *180:A2 0.000630966
2 *164:ZN 0.000630966
3 *180:A2 *162:I 0.00113165
4 *180:A2 *164:I 2.63437e-05
5 *180:A2 *168:I 8.108e-05
6 *180:A2 *175:A1 0.000113016
7 *180:A2 *175:A2 0.00021381
8 *180:A2 *176:B 0.000642976
9 *180:A2 *60:206 0.000535368
10 *206:I *180:A2 3.50983e-05
*RES
1 *164:ZN *180:A2 17.008 
*END

*D_NET *36 0.0103564
*CONN
*I *182:A2 I *D gf180mcu_fd_sc_mcu7t5v0__oai21_1
*I *165:ZN O *D gf180mcu_fd_sc_mcu7t5v0__clkinv_1
*CAP
1 *182:A2 0.00117292
2 *165:ZN 0.00117292
3 *182:A2 *165:I 0.000986273
4 *182:A2 *173:A2 0.000213898
5 *182:A2 *174:B 2.80652e-05
6 *182:A2 *176:A1 0.000613046
7 *182:A2 *176:B 1.85872e-06
8 *182:A2 *187:A1 0.000513893
9 *182:A2 *187:A2 0.000306249
10 *182:A2 *188:B 0.000566667
11 *182:A2 *192:A2 0.00214219
12 *182:A2 *198:CLK 0.000157742
13 *182:A2 *201:CLK 0.000493893
14 *182:A2 *208:I 0.000193672
15 *182:A2 *53:13 0.000186103
16 *182:A2 *61:27 4.94991e-05
17 *182:A2 *61:31 0.000165389
18 *182:A2 *61:48 9.67916e-05
19 *172:A1 *182:A2 0
20 *174:A2 *182:A2 0.000814951
21 *178:A2 *182:A2 0.000204094
22 *197:D *182:A2 0.00027627
*RES
1 *165:ZN *182:A2 35.68 
*END

*D_NET *37 0.00296378
*CONN
*I *184:A2 I *D gf180mcu_fd_sc_mcu7t5v0__oai21_1
*I *166:ZN O *D gf180mcu_fd_sc_mcu7t5v0__clkinv_1
*CAP
1 *184:A2 0.000393125
2 *166:ZN 0.000393125
3 *184:A2 *181:A2 0.000532996
4 *184:A2 *182:B 8.25219e-06
5 *184:A2 *186:A2 4.52911e-05
6 *184:A2 *200:CLK 0.000103788
7 *184:A2 *54:43 0.000651459
8 *184:A2 *60:38 0.000177508
9 *184:A2 *60:156 1.07369e-05
10 *184:A2 *60:167 5.25526e-05
11 *199:D *184:A2 0.000136
12 *200:D *184:A2 0.000458942
*RES
1 *166:ZN *184:A2 22.888 
*END

*D_NET *38 0.00143171
*CONN
*I *186:A2 I *D gf180mcu_fd_sc_mcu7t5v0__oai21_1
*I *167:ZN O *D gf180mcu_fd_sc_mcu7t5v0__clkinv_1
*CAP
1 *186:A2 0.000371694
2 *167:ZN 0.000371694
3 *186:A2 *60:167 1.07369e-05
4 *184:A2 *186:A2 4.52911e-05
5 *200:D *186:A2 0.000121765
6 *204:D *186:A2 0.000510533
*RES
1 *167:ZN *186:A2 12.64 
*END

*D_NET *39 0.00114767
*CONN
*I *188:A2 I *D gf180mcu_fd_sc_mcu7t5v0__oai21_1
*I *168:ZN O *D gf180mcu_fd_sc_mcu7t5v0__clkinv_1
*CAP
1 *188:A2 0.000177984
2 *168:ZN 0.000177984
3 *188:A2 *168:I 0.000141154
4 *188:A2 *201:CLK 0.000403896
5 *178:A2 *188:A2 8.28242e-05
6 *201:D *188:A2 0.000163823
*RES
1 *168:ZN *188:A2 11.184 
*END

*D_NET *40 0.00334427
*CONN
*I *190:A2 I *D gf180mcu_fd_sc_mcu7t5v0__oai21_1
*I *169:ZN O *D gf180mcu_fd_sc_mcu7t5v0__clkinv_1
*CAP
1 *190:A2 0.000431324
2 *169:ZN 0.000431324
3 *190:A2 *164:I 0.000265462
4 *190:A2 *169:I 0.00176341
5 *190:A2 *170:I 2.37133e-06
6 *190:A2 *224:I 2.3245e-05
7 *190:A2 *60:230 0
8 *202:D *190:A2 7.87395e-06
9 *216:I *190:A2 0.000419265
*RES
1 *169:ZN *190:A2 24.032 
*END

*D_NET *41 0.00817539
*CONN
*I *192:A2 I *D gf180mcu_fd_sc_mcu7t5v0__oai21_1
*I *170:ZN O *D gf180mcu_fd_sc_mcu7t5v0__clkinv_1
*CAP
1 *192:A2 0.000713899
2 *170:ZN 0.000713899
3 *192:A2 *165:I 0.00229325
4 *192:A2 *170:I 0.000869399
5 *192:A2 *192:B 6.30761e-05
6 *192:A2 *60:206 6.75896e-05
7 *192:A2 *60:219 6.2192e-05
8 *178:A2 *192:A2 8.38826e-05
9 *182:A2 *192:A2 0.00214219
10 *203:D *192:A2 0.000965879
11 *205:D *192:A2 0.000193782
12 *206:I *192:A2 6.35093e-06
*RES
1 *170:ZN *192:A2 30.48 
*END

*D_NET *42 0.00371917
*CONN
*I *172:B I *D gf180mcu_fd_sc_mcu7t5v0__oai21_1
*I *171:ZN O *D gf180mcu_fd_sc_mcu7t5v0__nand2_1
*CAP
1 *172:B 0.000545838
2 *171:ZN 0.000545838
3 *172:B *171:A1 0.0016622
4 *172:B *173:A2 0.000427245
5 *172:B *180:B 0.00018265
6 *172:B *181:A2 0.000111863
7 *172:B *193:A2 7.87395e-06
8 *172:B *60:73 0.000133248
9 *172:A1 *172:B 0.000102411
*RES
1 *171:ZN *172:B 25.696 
*END

*D_NET *43 0.00569346
*CONN
*I *174:B I *D gf180mcu_fd_sc_mcu7t5v0__oai21_1
*I *173:ZN O *D gf180mcu_fd_sc_mcu7t5v0__nand2_1
*CAP
1 *174:B 0.00109959
2 *173:ZN 0.00109959
3 *174:B *162:I 0.000114672
4 *174:B *173:A2 0.00031874
5 *174:B *176:B 0.000121109
6 *174:B *180:B 7.60808e-05
7 *174:B *181:A2 1.36042e-05
8 *174:B *182:B 0.000272211
9 *174:B *193:A2 0.00102662
10 *174:B *194:CLK 0.000214223
11 *174:B *198:CLK 0.000311267
12 *174:B *54:10 1.23243e-06
13 *176:A2 *174:B 0.000780138
14 *182:A2 *174:B 2.80652e-05
15 *198:D *174:B 0.000216321
*RES
1 *173:ZN *174:B 29.336 
*END

*D_NET *44 0.00339552
*CONN
*I *176:B I *D gf180mcu_fd_sc_mcu7t5v0__oai21_1
*I *175:ZN O *D gf180mcu_fd_sc_mcu7t5v0__nand2_1
*CAP
1 *176:B 0.000261549
2 *175:ZN 0.000261549
3 *176:B *161:I 0.00033593
4 *176:B *162:I 0.000642976
5 *176:B *167:I 0.000394855
6 *176:B *198:CLK 6.55615e-05
7 *174:B *176:B 0.000121109
8 *180:A2 *176:B 0.000642976
9 *182:A2 *176:B 1.85872e-06
10 *198:D *176:B 0.000667153
*RES
1 *175:ZN *176:B 22.888 
*END

*D_NET *45 0.00458659
*CONN
*I *178:B I *D gf180mcu_fd_sc_mcu7t5v0__oai21_1
*I *177:ZN O *D gf180mcu_fd_sc_mcu7t5v0__nand2_1
*CAP
1 *178:B 0.000499673
2 *177:ZN 0.000499673
3 *178:B *177:A2 0.000924443
4 *178:B *178:A1 6.57342e-05
5 *178:B *179:A1 4.32888e-05
6 *178:B *179:A2 2.99988e-05
7 *178:B *60:73 0
8 *178:A2 *178:B 0.000368683
9 *196:D *178:B 0.000651063
10 *221:I *178:B 0.00150403
*RES
1 *177:ZN *178:B 26.008 
*END

*D_NET *46 0.0058346
*CONN
*I *180:B I *D gf180mcu_fd_sc_mcu7t5v0__oai21_1
*I *179:ZN O *D gf180mcu_fd_sc_mcu7t5v0__nand2_1
*CAP
1 *180:B 0.00102122
2 *179:ZN 0.00102122
3 *180:B *162:I 0.000787162
4 *180:B *171:A1 0
5 *180:B *173:A2 0
6 *180:B *176:A1 0
7 *180:B *179:A1 0.000220496
8 *180:B *194:CLK 0.000732955
9 *180:B *60:73 4.06982e-05
10 *180:B *61:27 0.000218453
11 *180:B *61:31 0
12 *172:A1 *180:B 0.000147656
13 *172:B *180:B 0.00018265
14 *174:B *180:B 7.60808e-05
15 *195:D *180:B 9.95819e-06
16 *205:D *180:B 0.00137606
*RES
1 *179:ZN *180:B 29.544 
*END

*D_NET *47 0.00461424
*CONN
*I *182:B I *D gf180mcu_fd_sc_mcu7t5v0__oai21_1
*I *181:ZN O *D gf180mcu_fd_sc_mcu7t5v0__nand2_1
*CAP
1 *182:B 0.000648196
2 *181:ZN 0.000648196
3 *182:B *161:I 0.000500772
4 *182:B *167:I 0.000500772
5 *182:B *181:A2 2.64109e-05
6 *182:B *194:CLK 0.000537457
7 *182:B *54:8 9.0839e-05
8 *182:B *54:10 2.99776e-05
9 *182:B *60:38 1.756e-05
10 *174:B *182:B 0.000272211
11 *184:A2 *182:B 8.25219e-06
12 *198:D *182:B 0.0013336
*RES
1 *181:ZN *182:B 25.384 
*END

*D_NET *48 0.0013023
*CONN
*I *184:B I *D gf180mcu_fd_sc_mcu7t5v0__oai21_1
*I *183:ZN O *D gf180mcu_fd_sc_mcu7t5v0__nand2_1
*CAP
1 *184:B 0.000261399
2 *183:ZN 0.000261399
3 *184:B *183:A1 1.12327e-05
4 *184:B *183:A2 0.000176638
5 *184:B *184:A1 0.000254943
6 *184:B *185:A2 0.000239304
7 *184:B *60:269 9.739e-05
*RES
1 *183:ZN *184:B 12.12 
*END

*D_NET *49 0.00128406
*CONN
*I *186:B I *D gf180mcu_fd_sc_mcu7t5v0__oai21_1
*I *185:ZN O *D gf180mcu_fd_sc_mcu7t5v0__nand2_1
*CAP
1 *186:B 0.000105258
2 *185:ZN 0.000105258
3 *186:B *54:43 5.89482e-05
4 *186:B *60:12 0.000103788
5 *186:B *60:269 0.000491544
6 *199:D *186:B 0.000419265
*RES
1 *185:ZN *186:B 10.872 
*END

*D_NET *50 0.00194583
*CONN
*I *188:B I *D gf180mcu_fd_sc_mcu7t5v0__oai21_1
*I *187:ZN O *D gf180mcu_fd_sc_mcu7t5v0__nand2_1
*CAP
1 *188:B 0.000100133
2 *187:ZN 0.000100133
3 *188:B *163:I 0.000167974
4 *188:B *187:A1 0.000325853
5 *178:A2 *188:B 0.000685067
6 *182:A2 *188:B 0.000566667
*RES
1 *187:ZN *188:B 11.6 
*END

*D_NET *51 0.000155154
*CONN
*I *190:B I *D gf180mcu_fd_sc_mcu7t5v0__oai21_1
*I *189:ZN O *D gf180mcu_fd_sc_mcu7t5v0__nand2_1
*CAP
1 *190:B 3.47457e-05
2 *189:ZN 3.47457e-05
3 *190:B *224:I 8.56628e-05
4 *202:D *190:B 0
*RES
1 *189:ZN *190:B 9.52 
*END

*D_NET *52 0.00393342
*CONN
*I *192:B I *D gf180mcu_fd_sc_mcu7t5v0__oai21_1
*I *191:ZN O *D gf180mcu_fd_sc_mcu7t5v0__nand2_1
*CAP
1 *192:B 0.000690025
2 *191:ZN 0.000690025
3 *192:B *163:I 0.000670091
4 *192:B *165:I 0.000832603
5 *192:B *191:A2 0
6 *192:B *195:CLK 0.000569975
7 *192:B *198:CLK 1.78817e-06
8 *192:B *61:8 7.992e-05
9 *178:A2 *192:B 0
10 *192:A2 *192:B 6.30761e-05
11 *203:D *192:B 0.000335913
*RES
1 *191:ZN *192:B 17.84 
*END

*D_NET *53 0.00218253
*CONN
*I *207:I I *D gf180mcu_fd_sc_mcu7t5v0__clkbuf_16
*I *208:I I *D gf180mcu_fd_sc_mcu7t5v0__clkbuf_16
*I *206:Z O *D gf180mcu_fd_sc_mcu7t5v0__clkbuf_16
*CAP
1 *207:I 0
2 *208:I 0.00012999
3 *206:Z 0.000402115
4 *53:13 0.000532105
5 *53:13 *166:I 0.000363376
6 *178:A2 *208:I 0.000193672
7 *178:A2 *53:13 0.000181498
8 *182:A2 *208:I 0.000193672
9 *182:A2 *53:13 0.000186103
*RES
1 *206:Z *53:13 17.452 
2 *53:13 *208:I 6.06 
3 *53:13 *207:I 4.5 
*END

*D_NET *54 0.0171452
*CONN
*I *198:CLK I *D gf180mcu_fd_sc_mcu7t5v0__dffrnq_1
*I *200:CLK I *D gf180mcu_fd_sc_mcu7t5v0__dffrnq_1
*I *204:CLK I *D gf180mcu_fd_sc_mcu7t5v0__dffrnq_1
*I *194:CLK I *D gf180mcu_fd_sc_mcu7t5v0__dffrnq_1
*I *209:I I *D gf180mcu_fd_sc_mcu7t5v0__clkinv_2
*I *199:CLK I *D gf180mcu_fd_sc_mcu7t5v0__dffrnq_1
*I *207:Z O *D gf180mcu_fd_sc_mcu7t5v0__clkbuf_16
*CAP
1 *198:CLK 0.00112635
2 *200:CLK 1.31297e-05
3 *204:CLK 0.000729083
4 *194:CLK 0.000432209
5 *209:I 0
6 *199:CLK 0.000710315
7 *207:Z 0.00112635
8 *54:43 0.000937725
9 *54:10 0.000866924
10 *54:8 0.00063351
11 *54:4 0.000240204
12 *194:CLK *179:A1 0.000428493
13 *194:CLK *181:A2 7.63238e-06
14 *194:CLK *182:A1 0.000979184
15 *194:CLK *60:44 2.27039e-05
16 *194:CLK *60:50 1.29986e-06
17 *198:CLK *162:I 0.000129266
18 *198:CLK *164:I 0.000320323
19 *198:CLK *165:I 9.7618e-05
20 *198:CLK *195:CLK 2.39167e-05
21 *198:CLK *201:CLK 0.000388198
22 *198:CLK *55:6 0.000149493
23 *198:CLK *55:14 0.000475359
24 *198:CLK *61:8 0.000500761
25 *198:CLK *61:97 2.79913e-05
26 *199:CLK *171:A2 0.000115061
27 *204:CLK *161:I 2.46717e-05
28 *204:CLK *166:I 2.02458e-05
29 *204:CLK *181:A2 0
30 *204:CLK *200:RN 0.00042452
31 *204:CLK *204:RN 0.000522035
32 *204:CLK *60:167 6.15757e-06
33 *54:8 *171:A2 6.35093e-06
34 *54:8 *60:38 6.22117e-05
35 *54:10 *171:A2 0.000164549
36 *54:10 *193:A2 0
37 *54:43 *181:A2 0
38 *54:43 *60:12 9.35542e-06
39 *54:43 *60:23 3.28181e-05
40 *54:43 *60:44 8.52848e-05
41 *54:43 *60:156 6.73915e-06
42 *172:A1 *199:CLK 0.00010905
43 *174:A2 *194:CLK 1.25888e-05
44 *174:A2 *204:CLK 0.000476175
45 *174:B *194:CLK 0.000214223
46 *174:B *198:CLK 0.000311267
47 *174:B *54:10 1.23243e-06
48 *176:A2 *198:CLK 3.10673e-05
49 *176:B *198:CLK 6.55615e-05
50 *180:B *194:CLK 0.000732955
51 *182:A2 *198:CLK 0.000157742
52 *182:B *194:CLK 0.000537457
53 *182:B *54:8 9.0839e-05
54 *182:B *54:10 2.99776e-05
55 *184:A2 *200:CLK 0.000103788
56 *184:A2 *54:43 0.000651459
57 *186:B *54:43 5.89482e-05
58 *192:B *198:CLK 1.78817e-06
59 *198:D *194:CLK 0.000106904
60 *198:D *198:CLK 0.000296668
61 *199:D *199:CLK 2.37133e-06
62 *199:D *200:CLK 7.22679e-05
63 *199:D *54:43 0.000346997
64 *203:D *198:CLK 3.57634e-06
65 *204:D *204:CLK 0.000131862
66 *223:I *199:CLK 0.000750383
*RES
1 *207:Z *54:4 4.5 
2 *54:4 *54:8 5.228 
3 *54:8 *54:10 1.56 
4 *54:10 *199:CLK 14.616 
5 *54:10 *209:I 9 
6 *54:8 *194:CLK 15.552 
7 *54:4 *54:43 2.6 
8 *54:43 *204:CLK 19.532 
9 *54:43 *200:CLK 4.812 
10 *207:Z *198:CLK 29.336 
*END

*D_NET *55 0.0156625
*CONN
*I *202:CLK I *D gf180mcu_fd_sc_mcu7t5v0__dffrnq_1
*I *197:CLK I *D gf180mcu_fd_sc_mcu7t5v0__dffrnq_1
*I *196:CLK I *D gf180mcu_fd_sc_mcu7t5v0__dffrnq_1
*I *203:CLK I *D gf180mcu_fd_sc_mcu7t5v0__dffrnq_1
*I *201:CLK I *D gf180mcu_fd_sc_mcu7t5v0__dffrnq_1
*I *205:CLK I *D gf180mcu_fd_sc_mcu7t5v0__dffrnq_1
*I *195:CLK I *D gf180mcu_fd_sc_mcu7t5v0__dffrnq_1
*I *208:Z O *D gf180mcu_fd_sc_mcu7t5v0__clkbuf_16
*CAP
1 *202:CLK 0.000386028
2 *197:CLK 0
3 *196:CLK 0.000131693
4 *203:CLK 0.000156853
5 *201:CLK 0.00086996
6 *205:CLK 0
7 *195:CLK 0.000264885
8 *208:Z 7.02416e-05
9 *55:65 0.000259698
10 *55:63 0.000584275
11 *55:14 0.00045981
12 *55:6 0.00109668
13 *55:4 0.000188645
14 *195:CLK *163:I 0.000406961
15 *195:CLK *60:98 0.000288739
16 *195:CLK *61:10 0.000507644
17 *195:CLK *61:14 0.00132231
18 *196:CLK *166:I 0.000127561
19 *201:CLK *165:I 9.50753e-05
20 *201:CLK *168:I 0.000403896
21 *201:CLK *175:A1 1.70957e-06
22 *201:CLK *175:A2 0.000210829
23 *202:CLK *166:I 0.000186273
24 *202:CLK *203:RN 0.000188012
25 *202:CLK *224:I 0.000957709
26 *203:CLK *164:I 8.77636e-05
27 *55:65 *166:I 0.000105446
28 *55:65 *203:RN 6.23813e-05
29 *178:A2 *201:CLK 0.000560566
30 *182:A2 *201:CLK 0.000493893
31 *188:A2 *201:CLK 0.000403896
32 *192:B *195:CLK 0.000569975
33 *197:D *195:CLK 0
34 *197:D *201:CLK 3.38845e-05
35 *197:D *55:14 0.000147601
36 *198:D *201:CLK 1.23243e-06
37 *198:CLK *195:CLK 2.39167e-05
38 *198:CLK *201:CLK 0.000388198
39 *198:CLK *55:6 0.000149493
40 *198:CLK *55:14 0.000475359
41 *203:D *195:CLK 1.23331e-05
42 *203:D *203:CLK 6.75223e-05
43 *203:D *55:6 3.03268e-05
44 *203:D *55:14 0.000472831
45 *205:D *195:CLK 0.00197581
46 *206:I *201:CLK 0.000161627
47 *222:I *196:CLK 0.000214037
48 *222:I *55:65 5.89368e-05
*RES
1 *208:Z *55:4 4.5 
2 *55:4 *55:6 0.52 
3 *55:6 *55:14 11.496 
4 *55:14 *195:CLK 21.404 
5 *55:14 *205:CLK 4.5 
6 *55:6 *201:CLK 23.484 
7 *55:4 *203:CLK 5.852 
8 *208:Z *55:63 5.02 
9 *55:63 *55:65 1.352 
10 *55:65 *196:CLK 6.06 
11 *55:65 *197:CLK 4.5 
12 *55:63 *202:CLK 9.18 
*END

*D_NET *56 0.00320373
*CONN
*I *193:A2 I *D gf180mcu_fd_sc_mcu7t5v0__and2_1
*I *210:Z O *D gf180mcu_fd_sc_mcu7t5v0__dlyb_1
*CAP
1 *193:A2 0.000375836
2 *210:Z 0.000375836
3 *193:A2 *173:A2 0.00137681
4 *193:A2 *181:A2 4.07478e-05
5 *172:B *193:A2 7.87395e-06
6 *174:B *193:A2 0.00102662
7 *54:10 *193:A2 0
*RES
1 *210:Z *193:A2 23.824 
*END

*D_NET *57 0.000709338
*CONN
*I *183:A2 I *D gf180mcu_fd_sc_mcu7t5v0__nand2_1
*I *211:Z O *D gf180mcu_fd_sc_mcu7t5v0__dlyb_1
*CAP
1 *183:A2 0.000244373
2 *211:Z 0.000244373
3 *183:A2 *160:I 0
4 *183:A2 *185:A2 3.4596e-05
5 *183:A2 *60:12 5.36452e-06
6 *183:A2 *60:269 3.99399e-06
7 *184:B *183:A2 0.000176638
*RES
1 *211:Z *183:A2 11.08 
*END

*D_NET *58 0.00136994
*CONN
*I *185:A2 I *D gf180mcu_fd_sc_mcu7t5v0__nand2_1
*I *212:Z O *D gf180mcu_fd_sc_mcu7t5v0__dlyb_1
*CAP
1 *185:A2 0.000284268
2 *212:Z 0.000284268
3 *185:A2 *160:I 0
4 *185:A2 *204:RN 0.000439803
5 *185:A2 *60:10 5.54907e-05
6 *185:A2 *60:269 3.22108e-05
7 *183:A2 *185:A2 3.4596e-05
8 *184:B *185:A2 0.000239304
*RES
1 *212:Z *185:A2 21.224 
*END

*D_NET *59 0.00103409
*CONN
*I *187:A2 I *D gf180mcu_fd_sc_mcu7t5v0__nand2_1
*I *213:Z O *D gf180mcu_fd_sc_mcu7t5v0__dlyb_1
*CAP
1 *187:A2 0.000270803
2 *213:Z 0.000270803
3 *187:A2 *163:I 0.000151966
4 *187:A2 *165:I 3.42651e-05
5 *187:A2 *187:A1 0
6 *187:A2 *191:A2 0
7 *182:A2 *187:A2 0.000306249
*RES
1 *213:Z *187:A2 12.016 
*END

*D_NET *60 0.0307568
*CONN
*I *185:A1 I *D gf180mcu_fd_sc_mcu7t5v0__nand2_1
*I *184:A1 I *D gf180mcu_fd_sc_mcu7t5v0__oai21_1
*I *187:A1 I *D gf180mcu_fd_sc_mcu7t5v0__nand2_1
*I *189:A1 I *D gf180mcu_fd_sc_mcu7t5v0__nand2_1
*I *190:A1 I *D gf180mcu_fd_sc_mcu7t5v0__oai21_1
*I *191:A1 I *D gf180mcu_fd_sc_mcu7t5v0__nand2_1
*I *188:A1 I *D gf180mcu_fd_sc_mcu7t5v0__oai21_1
*I *175:A1 I *D gf180mcu_fd_sc_mcu7t5v0__nand2_1
*I *173:A1 I *D gf180mcu_fd_sc_mcu7t5v0__nand2_1
*I *181:A1 I *D gf180mcu_fd_sc_mcu7t5v0__nand2_1
*I *186:A1 I *D gf180mcu_fd_sc_mcu7t5v0__oai21_1
*I *193:A1 I *D gf180mcu_fd_sc_mcu7t5v0__and2_1
*I *172:A2 I *D gf180mcu_fd_sc_mcu7t5v0__oai21_1
*I *180:A1 I *D gf180mcu_fd_sc_mcu7t5v0__oai21_1
*I *176:A1 I *D gf180mcu_fd_sc_mcu7t5v0__oai21_1
*I *192:A1 I *D gf180mcu_fd_sc_mcu7t5v0__oai21_1
*I *177:A1 I *D gf180mcu_fd_sc_mcu7t5v0__nand2_1
*I *182:A1 I *D gf180mcu_fd_sc_mcu7t5v0__oai21_1
*I *174:A1 I *D gf180mcu_fd_sc_mcu7t5v0__oai21_1
*I *179:A1 I *D gf180mcu_fd_sc_mcu7t5v0__nand2_1
*I *178:A1 I *D gf180mcu_fd_sc_mcu7t5v0__oai21_1
*I *171:A2 I *D gf180mcu_fd_sc_mcu7t5v0__nand2_1
*I *183:A1 I *D gf180mcu_fd_sc_mcu7t5v0__nand2_1
*I *214:Z O *D gf180mcu_fd_sc_mcu7t5v0__dlyb_1
*CAP
1 *185:A1 0
2 *184:A1 0.000145078
3 *187:A1 0.000212459
4 *189:A1 0.000135526
5 *190:A1 0
6 *191:A1 0
7 *188:A1 0
8 *175:A1 2.17991e-05
9 *173:A1 1.46796e-05
10 *181:A1 2.40692e-05
11 *186:A1 0
12 *193:A1 0
13 *172:A2 0
14 *180:A1 1.91852e-05
15 *176:A1 0.000151014
16 *192:A1 0.000152709
17 *177:A1 1.6381e-05
18 *182:A1 0.00020029
19 *174:A1 0
20 *179:A1 0.00014463
21 *178:A1 0.000381685
22 *171:A2 0.000251063
23 *183:A1 3.21515e-05
24 *214:Z 9.31925e-05
25 *60:269 0.000254836
26 *60:230 0.000830781
27 *60:226 0.000952253
28 *60:219 0.000281663
29 *60:206 0.000544663
30 *60:191 0.000520382
31 *60:178 0.000328377
32 *60:167 0.000530801
33 *60:156 0.000435388
34 *60:124 0.000362325
35 *60:104 0.000455304
36 *60:98 0.00087168
37 *60:73 0.000722814
38 *60:69 0.000771233
39 *60:50 0.00101256
40 *60:44 0.00109107
41 *60:38 0.000651624
42 *60:23 0.000475359
43 *60:12 0.000184905
44 *60:10 0.000271523
45 *171:A2 *171:A1 1.07369e-05
46 *171:A2 *181:A2 0.000207625
47 *173:A1 *167:I 2.46717e-05
48 *173:A1 *173:A2 4.07478e-05
49 *175:A1 *175:A2 4.07478e-05
50 *176:A1 *167:I 0.000104393
51 *176:A1 *61:27 0.000143493
52 *177:A1 *175:A2 1.32276e-05
53 *177:A1 *177:A2 3.4596e-05
54 *180:A1 *162:I 6.71014e-05
55 *181:A1 *161:I 0.000113016
56 *187:A1 *163:I 0.000260076
57 *187:A1 *165:I 0.000222966
58 *187:A1 *170:I 9.82096e-05
59 *187:A1 *191:A2 8.79612e-05
60 *192:A1 *61:10 1.28023e-05
61 *192:A1 *61:14 2.17565e-05
62 *60:10 *204:RN 9.77992e-06
63 *60:23 *181:A2 6.50218e-06
64 *60:38 *181:A2 0.000116315
65 *60:50 *161:I 0
66 *60:50 *167:I 3.30734e-06
67 *60:50 *61:48 2.60613e-05
68 *60:98 *61:14 0.000346468
69 *60:104 *162:I 0.000419265
70 *60:104 *175:A2 5.6593e-05
71 *60:104 *61:14 3.91269e-05
72 *60:124 *162:I 0.000974536
73 *60:124 *175:A2 0.000120442
74 *60:167 *166:I 0.000472866
75 *60:167 *181:A2 0.000817001
76 *60:178 *166:I 0.000418244
77 *60:191 *166:I 0.000657053
78 *60:206 *166:I 4.03161e-05
79 *60:219 *165:I 0.000113027
80 *60:219 *166:I 0
81 *60:219 *170:I 8.48683e-06
82 *60:219 *191:A2 4.18157e-05
83 *60:226 *165:I 0.000224754
84 *60:226 *191:A2 9.09749e-05
85 *60:230 *170:I 0.000406476
86 *172:A1 *60:50 0.00018099
87 *172:B *60:73 0.000133248
88 *174:A2 *181:A1 3.22108e-05
89 *174:A2 *182:A1 0.000382047
90 *174:A2 *60:50 0.000179745
91 *176:A2 *173:A1 0.000113016
92 *178:A2 *177:A1 0.000113027
93 *178:A2 *178:A1 0.000232245
94 *178:A2 *192:A1 1.27019e-05
95 *178:A2 *60:73 0
96 *178:A2 *60:98 0
97 *178:A2 *60:104 0.000143871
98 *178:B *178:A1 6.57342e-05
99 *178:B *179:A1 4.32888e-05
100 *178:B *60:73 0
101 *180:A2 *175:A1 0.000113016
102 *180:A2 *60:206 0.000535368
103 *180:B *176:A1 0
104 *180:B *179:A1 0.000220496
105 *180:B *60:73 4.06982e-05
106 *182:A2 *176:A1 0.000613046
107 *182:A2 *187:A1 0.000513893
108 *182:B *60:38 1.756e-05
109 *183:A2 *60:12 5.36452e-06
110 *183:A2 *60:269 3.99399e-06
111 *184:A2 *60:38 0.000177508
112 *184:A2 *60:156 1.07369e-05
113 *184:A2 *60:167 5.25526e-05
114 *184:B *183:A1 1.12327e-05
115 *184:B *184:A1 0.000254943
116 *184:B *60:269 9.739e-05
117 *185:A2 *60:10 5.54907e-05
118 *185:A2 *60:269 3.22108e-05
119 *186:A2 *60:167 1.07369e-05
120 *186:B *60:12 0.000103788
121 *186:B *60:269 0.000491544
122 *187:A2 *187:A1 0
123 *188:B *187:A1 0.000325853
124 *190:A2 *60:230 0
125 *192:A2 *60:206 6.75896e-05
126 *192:A2 *60:219 6.2192e-05
127 *194:D *178:A1 0
128 *194:D *179:A1 0.000419265
129 *194:D *182:A1 3.4596e-05
130 *194:CLK *179:A1 0.000428493
131 *194:CLK *182:A1 0.000979184
132 *194:CLK *60:44 2.27039e-05
133 *194:CLK *60:50 1.29986e-06
134 *195:D *176:A1 9.76253e-05
135 *195:CLK *60:98 0.000288739
136 *197:D *180:A1 9.76253e-05
137 *197:D *60:124 0.000178541
138 *198:D *60:44 4.40134e-05
139 *199:D *171:A2 0.000366174
140 *199:D *184:A1 2.60583e-05
141 *199:D *60:10 0.00052233
142 *199:D *60:269 6.53438e-05
143 *199:CLK *171:A2 0.000115061
144 *200:D *60:44 7.70871e-06
145 *201:CLK *175:A1 1.70957e-06
146 *204:D *60:44 6.63529e-05
147 *204:D *60:50 2.81522e-06
148 *204:D *60:156 5.70116e-06
149 *204:D *60:167 1.12609e-05
150 *204:CLK *60:167 6.15757e-06
151 *205:D *176:A1 0
152 *205:D *60:73 1.28577e-05
153 *205:D *60:98 8.97388e-05
154 *206:I *175:A1 2.81522e-06
155 *206:I *60:206 0.000255411
156 *216:I *189:A1 0.00016121
157 *216:I *60:230 7.75984e-05
158 *217:I *60:230 2.20458e-05
159 *221:I *192:A1 7.06999e-05
160 *54:8 *171:A2 6.35093e-06
161 *54:8 *60:38 6.22117e-05
162 *54:10 *171:A2 0.000164549
163 *54:43 *60:12 9.35542e-06
164 *54:43 *60:23 3.28181e-05
165 *54:43 *60:44 8.52848e-05
166 *54:43 *60:156 6.73915e-06
*RES
1 *214:Z *60:10 14.852 
2 *60:10 *60:12 0.52 
3 *60:12 *183:A1 4.812 
4 *60:12 *60:23 5.02 
5 *60:23 *171:A2 12.328 
6 *60:23 *60:38 5.852 
7 *60:38 *60:44 3.016 
8 *60:44 *60:50 4.888 
9 *60:50 *178:A1 8.244 
10 *60:50 *60:69 4.5 
11 *60:69 *60:73 6.684 
12 *60:73 *179:A1 7.308 
13 *60:73 *174:A1 4.5 
14 *60:73 *182:A1 7.828 
15 *60:69 *60:98 8.348 
16 *60:98 *60:104 7.412 
17 *60:104 *177:A1 9.312 
18 *60:104 *192:A1 10.352 
19 *60:98 *60:124 2.808 
20 *60:124 *176:A1 15.58 
21 *60:124 *180:A1 4.812 
22 *60:50 *172:A2 4.5 
23 *60:44 *193:A1 4.5 
24 *60:38 *60:156 0.312 
25 *60:156 *186:A1 4.5 
26 *60:156 *60:167 7.62 
27 *60:167 *181:A1 9.312 
28 *60:167 *60:178 1.144 
29 *60:178 *173:A1 9.312 
30 *60:178 *60:191 6.268 
31 *60:191 *175:A1 4.812 
32 *60:191 *60:206 8.14 
33 *60:206 *188:A1 9 
34 *60:206 *60:219 6.372 
35 *60:219 *191:A1 4.5 
36 *60:219 *60:226 0.728 
37 *60:226 *60:230 10.012 
38 *60:230 *190:A1 9 
39 *60:230 *189:A1 10.56 
40 *60:226 *187:A1 16.932 
41 *60:10 *60:269 2.08 
42 *60:269 *184:A1 6.268 
43 *60:269 *185:A1 4.5 
*END

*D_NET *61 0.0243349
*CONN
*I *203:RN I *D gf180mcu_fd_sc_mcu7t5v0__dffrnq_1
*I *198:RN I *D gf180mcu_fd_sc_mcu7t5v0__dffrnq_1
*I *201:RN I *D gf180mcu_fd_sc_mcu7t5v0__dffrnq_1
*I *202:RN I *D gf180mcu_fd_sc_mcu7t5v0__dffrnq_1
*I *197:RN I *D gf180mcu_fd_sc_mcu7t5v0__dffrnq_1
*I *196:RN I *D gf180mcu_fd_sc_mcu7t5v0__dffrnq_1
*I *195:RN I *D gf180mcu_fd_sc_mcu7t5v0__dffrnq_1
*I *205:RN I *D gf180mcu_fd_sc_mcu7t5v0__dffrnq_1
*I *200:RN I *D gf180mcu_fd_sc_mcu7t5v0__dffrnq_1
*I *204:RN I *D gf180mcu_fd_sc_mcu7t5v0__dffrnq_1
*I *199:RN I *D gf180mcu_fd_sc_mcu7t5v0__dffrnq_1
*I *194:RN I *D gf180mcu_fd_sc_mcu7t5v0__dffrnq_1
*I *215:Z O *D gf180mcu_fd_sc_mcu7t5v0__dlyb_1
*CAP
1 *203:RN 0.000496475
2 *198:RN 6.68836e-05
3 *201:RN 0.00021959
4 *202:RN 0
5 *197:RN 0
6 *196:RN 3.26002e-05
7 *195:RN 0
8 *205:RN 0
9 *200:RN 0.000330757
10 *204:RN 0.000813417
11 *199:RN 0
12 *194:RN 0.00015969
13 *215:Z 0.000284317
14 *61:122 0.00111777
15 *61:104 0.000815472
16 *61:97 0.000716761
17 *61:88 0.00015348
18 *61:86 0.000788719
19 *61:48 0.0027063
20 *61:31 0.00195442
21 *61:27 0.000741917
22 *61:14 0.000708289
23 *61:10 0.000383679
24 *61:8 0.000703329
25 *194:RN *162:I 5.85255e-05
26 *200:RN *162:I 0.000113027
27 *200:RN *166:I 6.07088e-05
28 *201:RN *170:I 0
29 *204:RN *160:I 0.000122801
30 *204:RN *181:A2 0
31 *61:27 *162:I 2.80662e-05
32 *61:48 *161:I 0
33 *61:104 *164:I 0
34 *61:104 *170:I 0
35 *172:A1 *61:31 1.11104e-05
36 *176:A1 *61:27 0.000143493
37 *176:A2 *200:RN 0.000113027
38 *180:B *61:27 0.000218453
39 *180:B *61:31 0
40 *182:A2 *61:27 4.94991e-05
41 *182:A2 *61:31 0.000165389
42 *182:A2 *61:48 9.67916e-05
43 *185:A2 *204:RN 0.000439803
44 *192:A1 *61:10 1.28023e-05
45 *192:A1 *61:14 2.17565e-05
46 *192:B *61:8 7.992e-05
47 *195:D *61:27 0.000147922
48 *195:CLK *61:10 0.000507644
49 *195:CLK *61:14 0.00132231
50 *196:D *198:RN 7.16355e-05
51 *196:D *203:RN 1.91996e-05
52 *197:D *203:RN 0.000194511
53 *197:D *61:86 0
54 *197:D *61:122 0
55 *198:D *196:RN 8.21146e-06
56 *198:D *61:97 0.000745259
57 *198:D *61:104 0.000862747
58 *198:CLK *61:8 0.000500761
59 *198:CLK *61:97 2.79913e-05
60 *199:D *204:RN 0
61 *202:CLK *203:RN 0.000188012
62 *203:D *61:10 0
63 *203:D *61:86 0
64 *203:D *61:97 0.000194522
65 *203:D *61:104 0.000979604
66 *204:CLK *200:RN 0.00042452
67 *204:CLK *204:RN 0.000522035
68 *206:I *200:RN 0.00053027
69 *206:I *204:RN 0.000364168
70 *215:I *61:122 5.99851e-05
71 *217:I *201:RN 0
72 *217:I *61:104 0
73 *221:I *203:RN 0
74 *221:I *61:10 0
75 *221:I *61:86 0
76 *221:I *61:122 0.000109104
77 *222:I *198:RN 0.000337769
78 *222:I *203:RN 0.000803903
79 *55:65 *203:RN 6.23813e-05
80 *60:10 *204:RN 9.77992e-06
81 *60:50 *61:48 2.60613e-05
82 *60:98 *61:14 0.000346468
83 *60:104 *61:14 3.91269e-05
*RES
1 *215:Z *61:8 11.6 
2 *61:8 *61:10 1.976 
3 *61:10 *61:14 7.932 
4 *61:14 *194:RN 5.436 
5 *61:14 *61:27 8.036 
6 *61:27 *61:31 6.892 
7 *61:31 *199:RN 4.5 
8 *61:31 *61:48 19.428 
9 *61:48 *204:RN 16.488 
10 *61:48 *200:RN 13.16 
11 *61:27 *205:RN 9 
12 *61:10 *195:RN 9 
13 *61:8 *61:86 1.56 
14 *61:86 *61:88 4.5 
15 *61:88 *196:RN 4.812 
16 *61:88 *61:97 1.976 
17 *61:97 *197:RN 4.5 
18 *61:97 *61:104 6.136 
19 *61:104 *202:RN 4.5 
20 *61:104 *201:RN 5.956 
21 *61:86 *61:122 8.972 
22 *61:122 *198:RN 5.436 
23 *61:122 *203:RN 9.596 
*END

*D_NET *62 0.00331489
*CONN
*I *224:I I *D gf180mcu_fd_sc_mcu7t5v0__dlyb_1
*I *203:Q O *D gf180mcu_fd_sc_mcu7t5v0__dffrnq_1
*CAP
1 *224:I 0.000911852
2 *203:Q 0.000911852
3 *224:I *166:I 0.00019377
4 *224:I *189:A2 0.000146422
5 serial_out *224:I 9.98468e-06
6 *190:A2 *224:I 2.3245e-05
7 *190:B *224:I 8.56628e-05
8 *202:D *224:I 5.8994e-05
9 *202:CLK *224:I 0.000957709
10 *216:I *224:I 1.5399e-05
*RES
1 *203:Q *224:I 17.112 
*END

*D_NET *63 0.00103895
*CONN
*I *189:A2 I *D gf180mcu_fd_sc_mcu7t5v0__nand2_1
*I *216:Z O *D gf180mcu_fd_sc_mcu7t5v0__dlyb_1
*CAP
1 *189:A2 0.000402507
2 *216:Z 0.000402507
3 serial_out *189:A2 8.75081e-05
4 *224:I *189:A2 0.000146422
*RES
1 *216:Z *189:A2 12.536 
*END

*D_NET *64 0.00209132
*CONN
*I *191:A2 I *D gf180mcu_fd_sc_mcu7t5v0__nand2_1
*I *217:Z O *D gf180mcu_fd_sc_mcu7t5v0__dlyb_1
*CAP
1 *191:A2 0.000463213
2 *217:Z 0.000463213
3 *191:A2 *163:I 0.000714543
4 *191:A2 *164:I 1.37509e-05
5 *191:A2 *165:I 7.3e-05
6 *191:A2 *169:I 0.000142844
7 *187:A1 *191:A2 8.79612e-05
8 *187:A2 *191:A2 0
9 *192:B *191:A2 0
10 *60:219 *191:A2 4.18157e-05
11 *60:226 *191:A2 9.09749e-05
*RES
1 *217:Z *191:A2 13.472 
*END

*D_NET *65 0.00368207
*CONN
*I *171:A1 I *D gf180mcu_fd_sc_mcu7t5v0__nand2_1
*I *218:Z O *D gf180mcu_fd_sc_mcu7t5v0__dlyb_1
*CAP
1 *171:A1 0.000700737
2 *218:Z 0.000700737
3 *171:A1 *173:A2 0.000160097
4 *171:A1 *181:A2 8.1598e-06
5 *171:A2 *171:A1 1.07369e-05
6 *172:A1 *171:A1 1.81504e-05
7 *172:B *171:A1 0.0016622
8 *180:B *171:A1 0
9 *199:D *171:A1 0.000269581
10 *210:I *171:A1 0
11 *218:I *171:A1 0.000145846
12 *219:I *171:A1 5.81897e-06
*RES
1 *218:Z *171:A1 17.424 
*END

*D_NET *66 0.0070537
*CONN
*I *173:A2 I *D gf180mcu_fd_sc_mcu7t5v0__nand2_1
*I *219:Z O *D gf180mcu_fd_sc_mcu7t5v0__dlyb_1
*CAP
1 *173:A2 0.00116972
2 *219:Z 0.00116972
3 *173:A2 *167:I 0.00101233
4 *171:A1 *173:A2 0.000160097
5 *172:A1 *173:A2 0
6 *172:B *173:A2 0.000427245
7 *173:A1 *173:A2 4.07478e-05
8 *174:A2 *173:A2 0.000807932
9 *174:B *173:A2 0.00031874
10 *176:A2 *173:A2 0.000356459
11 *180:B *173:A2 0
12 *182:A2 *173:A2 0.000213898
13 *193:A2 *173:A2 0.00137681
*RES
1 *219:Z *173:A2 31.624 
*END

*D_NET *67 0.00324468
*CONN
*I *175:A2 I *D gf180mcu_fd_sc_mcu7t5v0__nand2_1
*I *220:Z O *D gf180mcu_fd_sc_mcu7t5v0__dlyb_1
*CAP
1 *175:A2 0.00114733
2 *220:Z 0.00114733
3 *175:A2 *162:I 3.70293e-05
4 *175:A2 *177:A2 7.71806e-05
5 *175:A1 *175:A2 4.07478e-05
6 *177:A1 *175:A2 1.32276e-05
7 *178:A2 *175:A2 0.000142564
8 *180:A2 *175:A2 0.00021381
9 *197:D *175:A2 3.76002e-05
10 *201:CLK *175:A2 0.000210829
11 *206:I *175:A2 0
12 *60:104 *175:A2 5.6593e-05
13 *60:124 *175:A2 0.000120442
*RES
1 *220:Z *175:A2 18.048 
*END

*D_NET *68 0.00213412
*CONN
*I *177:A2 I *D gf180mcu_fd_sc_mcu7t5v0__nand2_1
*I *221:Z O *D gf180mcu_fd_sc_mcu7t5v0__dlyb_1
*CAP
1 *177:A2 0.000169881
2 *221:Z 0.000169881
3 *175:A2 *177:A2 7.71806e-05
4 *177:A1 *177:A2 3.4596e-05
5 *178:A2 *177:A2 4.81999e-05
6 *178:B *177:A2 0.000924443
7 *196:D *177:A2 0.00070994
*RES
1 *221:Z *177:A2 21.12 
*END

*D_NET *69 0.00685761
*CONN
*I *179:A2 I *D gf180mcu_fd_sc_mcu7t5v0__nand2_1
*I *222:Z O *D gf180mcu_fd_sc_mcu7t5v0__dlyb_1
*CAP
1 *179:A2 0.00109187
2 *222:Z 0.00109187
3 *178:B *179:A2 2.99988e-05
4 *196:D *179:A2 0.00462219
5 *215:I *179:A2 2.16732e-05
*RES
1 *222:Z *179:A2 31.728 
*END

*D_NET *70 0.00407148
*CONN
*I *181:A2 I *D gf180mcu_fd_sc_mcu7t5v0__nand2_1
*I *223:Z O *D gf180mcu_fd_sc_mcu7t5v0__dlyb_1
*CAP
1 *181:A2 0.000746618
2 *223:Z 0.000746618
3 *171:A1 *181:A2 8.1598e-06
4 *171:A2 *181:A2 0.000207625
5 *172:B *181:A2 0.000111863
6 *174:B *181:A2 1.36042e-05
7 *182:B *181:A2 2.64109e-05
8 *184:A2 *181:A2 0.000532996
9 *193:A2 *181:A2 4.07478e-05
10 *194:CLK *181:A2 7.63238e-06
11 *199:D *181:A2 0.000689386
12 *204:RN *181:A2 0
13 *204:CLK *181:A2 0
14 *54:43 *181:A2 0
15 *60:23 *181:A2 6.50218e-06
16 *60:38 *181:A2 0.000116315
17 *60:167 *181:A2 0.000817001
*RES
1 *223:Z *181:A2 25.488 
*END

*D_NET *71 0.00221985
*CONN
*I *160:I I *D gf180mcu_fd_sc_mcu7t5v0__clkinv_1
*I *204:Q O *D gf180mcu_fd_sc_mcu7t5v0__dffrnq_1
*CAP
1 *160:I 0.000627589
2 *204:Q 0.000627589
3 *183:A2 *160:I 0
4 *185:A2 *160:I 0
5 *199:D *160:I 0.000193782
6 *204:RN *160:I 0.000122801
7 *211:I *160:I 4.18157e-05
8 *212:I *160:I 0.000327222
9 *214:I *160:I 0.00019377
10 *223:I *160:I 8.52848e-05
*RES
1 *204:Q *160:I 15.136 
*END

*D_NET *72 0.00282808
*CONN
*I *170:I I *D gf180mcu_fd_sc_mcu7t5v0__clkinv_1
*I *202:Q O *D gf180mcu_fd_sc_mcu7t5v0__dffrnq_1
*CAP
1 *170:I 0.000484102
2 *202:Q 0.000484102
3 *170:I *163:I 5.10571e-05
4 *170:I *164:I 0.000408561
5 *187:A1 *170:I 9.82096e-05
6 *190:A2 *170:I 2.37133e-06
7 *192:A2 *170:I 0.000869399
8 *201:RN *170:I 0
9 *206:I *170:I 1.53192e-05
10 *60:219 *170:I 8.48683e-06
11 *60:230 *170:I 0.000406476
12 *61:104 *170:I 0
*RES
1 *202:Q *170:I 22.992 
*END

*D_NET *73 0.00421733
*CONN
*I *161:I I *D gf180mcu_fd_sc_mcu7t5v0__clkinv_1
*I *205:Q O *D gf180mcu_fd_sc_mcu7t5v0__dffrnq_1
*CAP
1 *161:I 0.000752299
2 *205:Q 0.000752299
3 *161:I *167:I 0.000566066
4 *174:A2 *161:I 0.00117228
5 *176:B *161:I 0.00033593
6 *181:A1 *161:I 0.000113016
7 *182:B *161:I 0.000500772
8 *204:CLK *161:I 2.46717e-05
9 *60:50 *161:I 0
10 *61:48 *161:I 0
*RES
1 *205:Q *161:I 17.32 
*END

*D_NET *74 0.00659656
*CONN
*I *162:I I *D gf180mcu_fd_sc_mcu7t5v0__clkinv_1
*I *194:Q O *D gf180mcu_fd_sc_mcu7t5v0__dffrnq_1
*CAP
1 *162:I 0.000878648
2 *194:Q 0.000878648
3 *162:I *167:I 0
4 *174:B *162:I 0.000114672
5 *175:A2 *162:I 3.70293e-05
6 *176:A2 *162:I 0.000335984
7 *176:B *162:I 0.000642976
8 *180:A1 *162:I 6.71014e-05
9 *180:A2 *162:I 0.00113165
10 *180:B *162:I 0.000787162
11 *194:RN *162:I 5.85255e-05
12 *198:CLK *162:I 0.000129266
13 *200:RN *162:I 0.000113027
14 *60:104 *162:I 0.000419265
15 *60:124 *162:I 0.000974536
16 *61:27 *162:I 2.80662e-05
*RES
1 *194:Q *162:I 21.272 
*END

*D_NET *75 0.0084089
*CONN
*I *163:I I *D gf180mcu_fd_sc_mcu7t5v0__clkinv_1
*I *195:Q O *D gf180mcu_fd_sc_mcu7t5v0__dffrnq_1
*CAP
1 *163:I 0.000665925
2 *195:Q 0.000665925
3 *163:I *164:I 0.00389088
4 *163:I *165:I 3.68404e-05
5 *170:I *163:I 5.10571e-05
6 *178:A2 *163:I 0.000726651
7 *187:A1 *163:I 0.000260076
8 *187:A2 *163:I 0.000151966
9 *188:B *163:I 0.000167974
10 *191:A2 *163:I 0.000714543
11 *192:B *163:I 0.000670091
12 *195:CLK *163:I 0.000406961
*RES
1 *195:Q *163:I 31 
*END

*D_NET *76 0.00760446
*CONN
*I *164:I I *D gf180mcu_fd_sc_mcu7t5v0__clkinv_1
*I *196:Q O *D gf180mcu_fd_sc_mcu7t5v0__dffrnq_1
*CAP
1 *164:I 0.00119549
2 *196:Q 0.00119549
3 *164:I *165:I 9.7618e-05
4 *164:I *168:I 7.02954e-05
5 *164:I *169:I 3.24768e-05
6 *163:I *164:I 0.00389088
7 *170:I *164:I 0.000408561
8 *180:A2 *164:I 2.63437e-05
9 *190:A2 *164:I 0.000265462
10 *191:A2 *164:I 1.37509e-05
11 *198:CLK *164:I 0.000320323
12 *203:CLK *164:I 8.77636e-05
13 *61:104 *164:I 0
*RES
1 *196:Q *164:I 31.416 
*END

*D_NET *77 0.00693779
*CONN
*I *165:I I *D gf180mcu_fd_sc_mcu7t5v0__clkinv_1
*I *197:Q O *D gf180mcu_fd_sc_mcu7t5v0__dffrnq_1
*CAP
1 *165:I 0.000665841
2 *197:Q 0.000665841
3 *163:I *165:I 3.68404e-05
4 *164:I *165:I 9.7618e-05
5 *182:A2 *165:I 0.000986273
6 *187:A1 *165:I 0.000222966
7 *187:A2 *165:I 3.42651e-05
8 *191:A2 *165:I 7.3e-05
9 *192:A2 *165:I 0.00229325
10 *192:B *165:I 0.000832603
11 *197:D *165:I 0.000498816
12 *198:CLK *165:I 9.7618e-05
13 *201:CLK *165:I 9.50753e-05
14 *60:219 *165:I 0.000113027
15 *60:226 *165:I 0.000224754
*RES
1 *197:Q *165:I 29.128 
*END

*D_NET *78 0.00864636
*CONN
*I *166:I I *D gf180mcu_fd_sc_mcu7t5v0__clkinv_1
*I *198:Q O *D gf180mcu_fd_sc_mcu7t5v0__dffrnq_1
*CAP
1 *166:I 0.00292238
2 *198:Q 0.00292238
3 *196:CLK *166:I 0.000127561
4 *200:RN *166:I 6.07088e-05
5 *202:CLK *166:I 0.000186273
6 *204:CLK *166:I 2.02458e-05
7 *206:I *166:I 0
8 *217:I *166:I 0.000107343
9 *222:I *166:I 4.83913e-05
10 *224:I *166:I 0.00019377
11 *53:13 *166:I 0.000363376
12 *55:65 *166:I 0.000105446
13 *60:167 *166:I 0.000472866
14 *60:178 *166:I 0.000418244
15 *60:191 *166:I 0.000657053
16 *60:206 *166:I 4.03161e-05
17 *60:219 *166:I 0
*RES
1 *198:Q *166:I 40.776 
*END

*D_NET *79 0.00540581
*CONN
*I *167:I I *D gf180mcu_fd_sc_mcu7t5v0__clkinv_1
*I *199:Q O *D gf180mcu_fd_sc_mcu7t5v0__dffrnq_1
*CAP
1 *167:I 0.00130868
2 *199:Q 0.00130868
3 *161:I *167:I 0.000566066
4 *162:I *167:I 0
5 *173:A1 *167:I 2.46717e-05
6 *173:A2 *167:I 0.00101233
7 *176:A1 *167:I 0.000104393
8 *176:A2 *167:I 5.41448e-05
9 *176:B *167:I 0.000394855
10 *182:B *167:I 0.000500772
11 *195:D *167:I 1.39027e-05
12 *206:I *167:I 0.000114007
13 *60:50 *167:I 3.30734e-06
*RES
1 *199:Q *167:I 29.336 
*END

*D_NET *80 0.00118016
*CONN
*I *168:I I *D gf180mcu_fd_sc_mcu7t5v0__clkinv_1
*I *200:Q O *D gf180mcu_fd_sc_mcu7t5v0__dffrnq_1
*CAP
1 *168:I 0.000230315
2 *200:Q 0.000230315
3 *164:I *168:I 7.02954e-05
4 *178:A2 *168:I 1.23682e-05
5 *180:A2 *168:I 8.108e-05
6 *188:A2 *168:I 0.000141154
7 *201:CLK *168:I 0.000403896
8 *206:I *168:I 1.07369e-05
*RES
1 *200:Q *168:I 11.704 
*END

*D_NET *81 0.00341506
*CONN
*I *169:I I *D gf180mcu_fd_sc_mcu7t5v0__clkinv_1
*I *201:Q O *D gf180mcu_fd_sc_mcu7t5v0__dffrnq_1
*CAP
1 *169:I 0.000412702
2 *201:Q 0.000412702
3 *164:I *169:I 3.24768e-05
4 *190:A2 *169:I 0.00176341
5 *191:A2 *169:I 0.000142844
6 *216:I *169:I 0.000325466
7 *217:I *169:I 0.000325466
*RES
1 *201:Q *169:I 23.616 
*END
