*SPEF "ieee 1481-1999"
*DESIGN "andig_clock"
*DATE "02:22:24 Monday August 17, 2026"
*VENDOR "The OpenROAD Project"
*PROGRAM "OpenROAD"
*VERSION "26Q1-1024-gdcf36133a"
*DESIGN_FLOW "NAME_SCOPE LOCAL" "PIN_CAP NONE"
*DIVIDER /
*DELIMITER :
*BUS_DELIMITER []
*T_UNIT 1 NS
*C_UNIT 1 PF
*R_UNIT 1 OHM
*L_UNIT 1 HENRY

*NAME_MAP
*3 in_clk
*4 out_clk1
*5 out_clk2
*6 out_clk2B
*7 out_clk_cic
*8 rst
*9 _00_
*10 _01_
*11 _02_
*12 _03_
*13 _04_
*14 _05_
*15 _06_
*16 _07_
*17 _08_
*18 _09_
*19 _10_
*20 _11_
*21 _12_
*22 _13_
*23 _14_
*24 clknet_0_in_clk
*25 clknet_1_0__leaf_in_clk
*26 clknet_1_1__leaf_in_clk
*27 counter\[0\]
*28 counter\[1\]
*29 counter\[2\]
*30 net1
*31 net2
*32 net3
*33 net4
*34 net5
*35 FILLER_0_104
*36 FILLER_0_138
*37 FILLER_0_146
*38 FILLER_0_150
*39 FILLER_0_2
*40 FILLER_0_36
*41 FILLER_0_70
*42 FILLER_10_115
*43 FILLER_10_140
*44 FILLER_10_148
*45 FILLER_10_2
*46 FILLER_10_34
*47 FILLER_10_37
*48 FILLER_10_53
*49 FILLER_10_61
*50 FILLER_10_99
*51 FILLER_11_104
*52 FILLER_11_122
*53 FILLER_11_146
*54 FILLER_11_150
*55 FILLER_11_2
*56 FILLER_11_66
*57 FILLER_11_72
*58 FILLER_12_101
*59 FILLER_12_107
*60 FILLER_12_115
*61 FILLER_12_117
*62 FILLER_12_2
*63 FILLER_12_34
*64 FILLER_12_37
*65 FILLER_13_136
*66 FILLER_13_142
*67 FILLER_13_150
*68 FILLER_13_2
*69 FILLER_13_66
*70 FILLER_13_72
*71 FILLER_14_101
*72 FILLER_14_107
*73 FILLER_14_123
*74 FILLER_14_131
*75 FILLER_14_135
*76 FILLER_14_2
*77 FILLER_14_34
*78 FILLER_14_37
*79 FILLER_15_136
*80 FILLER_15_142
*81 FILLER_15_150
*82 FILLER_15_2
*83 FILLER_15_66
*84 FILLER_15_72
*85 FILLER_16_104
*86 FILLER_16_138
*87 FILLER_16_146
*88 FILLER_16_150
*89 FILLER_16_2
*90 FILLER_16_36
*91 FILLER_16_70
*92 FILLER_1_136
*93 FILLER_1_142
*94 FILLER_1_150
*95 FILLER_1_2
*96 FILLER_1_66
*97 FILLER_1_72
*98 FILLER_2_101
*99 FILLER_2_107
*100 FILLER_2_139
*101 FILLER_2_147
*102 FILLER_2_151
*103 FILLER_2_2
*104 FILLER_2_34
*105 FILLER_2_37
*106 FILLER_3_136
*107 FILLER_3_142
*108 FILLER_3_150
*109 FILLER_3_2
*110 FILLER_3_66
*111 FILLER_3_72
*112 FILLER_4_102
*113 FILLER_4_104
*114 FILLER_4_107
*115 FILLER_4_115
*116 FILLER_4_2
*117 FILLER_4_34
*118 FILLER_4_37
*119 FILLER_4_53
*120 FILLER_4_55
*121 FILLER_4_90
*122 FILLER_4_98
*123 FILLER_5_130
*124 FILLER_5_138
*125 FILLER_5_142
*126 FILLER_5_150
*127 FILLER_5_2
*128 FILLER_5_66
*129 FILLER_5_72
*130 FILLER_6_107
*131 FILLER_6_115
*132 FILLER_6_119
*133 FILLER_6_2
*134 FILLER_6_34
*135 FILLER_6_37
*136 FILLER_6_53
*137 FILLER_7_139
*138 FILLER_7_146
*139 FILLER_7_150
*140 FILLER_7_2
*141 FILLER_7_34
*142 FILLER_7_50
*143 FILLER_7_58
*144 FILLER_7_78
*145 FILLER_7_86
*146 FILLER_7_88
*147 FILLER_8_107
*148 FILLER_8_109
*149 FILLER_8_2
*150 FILLER_8_34
*151 FILLER_8_37
*152 FILLER_8_53
*153 FILLER_8_61
*154 FILLER_8_85
*155 FILLER_9_142
*156 FILLER_9_150
*157 FILLER_9_2
*158 FILLER_9_66
*159 FILLER_9_80
*160 FILLER_9_88
*161 PHY_EDGE_ROW_0_Left_17
*162 PHY_EDGE_ROW_0_Right_0
*163 PHY_EDGE_ROW_10_Left_27
*164 PHY_EDGE_ROW_10_Right_10
*165 PHY_EDGE_ROW_11_Left_28
*166 PHY_EDGE_ROW_11_Right_11
*167 PHY_EDGE_ROW_12_Left_29
*168 PHY_EDGE_ROW_12_Right_12
*169 PHY_EDGE_ROW_13_Left_30
*170 PHY_EDGE_ROW_13_Right_13
*171 PHY_EDGE_ROW_14_Left_31
*172 PHY_EDGE_ROW_14_Right_14
*173 PHY_EDGE_ROW_15_Left_32
*174 PHY_EDGE_ROW_15_Right_15
*175 PHY_EDGE_ROW_16_Left_33
*176 PHY_EDGE_ROW_16_Right_16
*177 PHY_EDGE_ROW_1_Left_18
*178 PHY_EDGE_ROW_1_Right_1
*179 PHY_EDGE_ROW_2_Left_19
*180 PHY_EDGE_ROW_2_Right_2
*181 PHY_EDGE_ROW_3_Left_20
*182 PHY_EDGE_ROW_3_Right_3
*183 PHY_EDGE_ROW_4_Left_21
*184 PHY_EDGE_ROW_4_Right_4
*185 PHY_EDGE_ROW_5_Left_22
*186 PHY_EDGE_ROW_5_Right_5
*187 PHY_EDGE_ROW_6_Left_23
*188 PHY_EDGE_ROW_6_Right_6
*189 PHY_EDGE_ROW_7_Left_24
*190 PHY_EDGE_ROW_7_Right_7
*191 PHY_EDGE_ROW_8_Left_25
*192 PHY_EDGE_ROW_8_Right_8
*193 PHY_EDGE_ROW_9_Left_26
*194 PHY_EDGE_ROW_9_Right_9
*195 TAP_TAPCELL_ROW_0_34
*196 TAP_TAPCELL_ROW_0_35
*197 TAP_TAPCELL_ROW_0_36
*198 TAP_TAPCELL_ROW_0_37
*199 TAP_TAPCELL_ROW_10_56
*200 TAP_TAPCELL_ROW_10_57
*201 TAP_TAPCELL_ROW_11_58
*202 TAP_TAPCELL_ROW_11_59
*203 TAP_TAPCELL_ROW_12_60
*204 TAP_TAPCELL_ROW_12_61
*205 TAP_TAPCELL_ROW_13_62
*206 TAP_TAPCELL_ROW_13_63
*207 TAP_TAPCELL_ROW_14_64
*208 TAP_TAPCELL_ROW_14_65
*209 TAP_TAPCELL_ROW_15_66
*210 TAP_TAPCELL_ROW_15_67
*211 TAP_TAPCELL_ROW_16_68
*212 TAP_TAPCELL_ROW_16_69
*213 TAP_TAPCELL_ROW_16_70
*214 TAP_TAPCELL_ROW_16_71
*215 TAP_TAPCELL_ROW_1_38
*216 TAP_TAPCELL_ROW_1_39
*217 TAP_TAPCELL_ROW_2_40
*218 TAP_TAPCELL_ROW_2_41
*219 TAP_TAPCELL_ROW_3_42
*220 TAP_TAPCELL_ROW_3_43
*221 TAP_TAPCELL_ROW_4_44
*222 TAP_TAPCELL_ROW_4_45
*223 TAP_TAPCELL_ROW_5_46
*224 TAP_TAPCELL_ROW_5_47
*225 TAP_TAPCELL_ROW_6_48
*226 TAP_TAPCELL_ROW_6_49
*227 TAP_TAPCELL_ROW_7_50
*228 TAP_TAPCELL_ROW_7_51
*229 TAP_TAPCELL_ROW_8_52
*230 TAP_TAPCELL_ROW_8_53
*231 TAP_TAPCELL_ROW_9_54
*232 TAP_TAPCELL_ROW_9_55
*233 _15_
*234 _16_
*235 _17_
*236 _18_
*237 _19_
*238 _20_
*239 _21_
*240 _22_
*241 _23_
*242 _24_
*243 _25_
*244 _26_
*245 _27_
*246 _28_
*247 _29_
*248 _30_
*249 _31_
*250 _32_
*251 _33_
*252 _34_
*253 _35_
*254 _36_
*255 clkbuf_0_in_clk
*256 clkbuf_1_0__f_in_clk
*257 clkbuf_1_1__f_in_clk
*258 clkload0
*259 input1
*260 output2
*261 output3
*262 output4
*263 output5

*PORTS
in_clk I
out_clk1 O
out_clk2 O
out_clk2B O
out_clk_cic O
rst I

*D_NET *3 0.00678615
*CONN
*P in_clk I
*I *255:I I *D gf180mcu_fd_sc_mcu7t5v0__clkbuf_16
*CAP
1 in_clk 0.00311529
2 *255:I 0.00311529
3 *255:I *246:A1 0
4 *255:I *252:RN 0.00055557
5 *255:I *256:I 0
6 *255:I *257:I 0
7 *255:I *27:12 0
8 *255:I *29:34 0
*RES
1 in_clk *255:I 33.435 
*END

*D_NET *4 0.00233198
*CONN
*P out_clk1 O
*I *260:Z O *D gf180mcu_fd_sc_mcu7t5v0__dlyb_1
*CAP
1 out_clk1 0.000705919
2 *260:Z 0.000705919
3 out_clk1 *259:I 0.000576149
4 out_clk1 *260:I 0
5 out_clk1 *30:6 9.66079e-05
6 out_clk1 *30:12 0.000247389
*RES
1 *260:Z out_clk1 15.8979 
*END

*D_NET *5 0.00196718
*CONN
*P out_clk2 O
*I *261:Z O *D gf180mcu_fd_sc_mcu7t5v0__dlyb_1
*CAP
1 out_clk2 0.00068676
2 *261:Z 0.00068676
3 out_clk2 out_clk2B 0.000241467
4 out_clk2 *247:B1 0.000172556
5 out_clk2 *250:RN 0
6 out_clk2 *261:I 2.35868e-05
7 out_clk2 *262:I 9.8582e-06
8 out_clk2 *32:10 0.000146193
*RES
1 *261:Z out_clk2 14.9979 
*END

*D_NET *6 0.00226497
*CONN
*P out_clk2B O
*I *262:Z O *D gf180mcu_fd_sc_mcu7t5v0__dlyb_1
*CAP
1 out_clk2B 0.000797931
2 *262:Z 0.000797931
3 out_clk2B *250:RN 4.10237e-05
4 out_clk2B *262:I 0
5 out_clk2B *32:10 0.000386615
6 out_clk2 out_clk2B 0.000241467
*RES
1 *262:Z out_clk2B 15.8979 
*END

*D_NET *7 0.00281776
*CONN
*P out_clk_cic O
*I *263:Z O *D gf180mcu_fd_sc_mcu7t5v0__dlyb_1
*CAP
1 out_clk_cic 0.000855317
2 *263:Z 0.000855317
3 out_clk_cic *248:A1 0.00012273
4 out_clk_cic *250:RN 0
5 out_clk_cic *263:I 0.000382866
6 out_clk_cic *34:8 0.000601531
*RES
1 *263:Z out_clk_cic 16.2579 
*END

*D_NET *8 0.00114229
*CONN
*P rst I
*I *259:I I *D gf180mcu_fd_sc_mcu7t5v0__dlyb_1
*CAP
1 rst 0.000283072
2 *259:I 0.000283072
3 out_clk1 *259:I 0.000576149
*RES
1 rst *259:I 12.4779 
*END

*D_NET *9 0.000486043
*CONN
*I *252:D I *D gf180mcu_fd_sc_mcu7t5v0__dffrnq_1
*I *237:ZN O *D gf180mcu_fd_sc_mcu7t5v0__aoi21_1
*CAP
1 *252:D 0.000217015
2 *237:ZN 0.000217015
3 *252:D *237:A1 1.61174e-05
4 *252:D *243:S 0
5 *252:D *29:34 3.58953e-05
*RES
1 *237:ZN *252:D 10.62 
*END

*D_NET *10 0.000564204
*CONN
*I *253:D I *D gf180mcu_fd_sc_mcu7t5v0__dffrnq_1
*I *242:ZN O *D gf180mcu_fd_sc_mcu7t5v0__nor3_1
*CAP
1 *253:D 0.000204917
2 *242:ZN 0.000204917
3 *253:D *253:CLK 5.97457e-06
4 *253:D *254:RN 1.08202e-05
5 *253:D *29:8 0.000137574
6 *253:D *29:19 0
*RES
1 *242:ZN *253:D 10.8 
*END

*D_NET *11 0.00282111
*CONN
*I *254:D I *D gf180mcu_fd_sc_mcu7t5v0__dffrnq_1
*I *243:Z O *D gf180mcu_fd_sc_mcu7t5v0__mux2_2
*CAP
1 *254:D 0.000702901
2 *243:Z 0.000702901
3 *254:D *242:A3 0
4 *254:D *243:I1 6.54322e-05
5 *254:D *252:CLK 5.69319e-05
6 *254:D *254:CLK 0.00107909
7 *254:D *25:19 0.000213855
*RES
1 *243:Z *254:D 16.02 
*END

*D_NET *12 0.00086265
*CONN
*I *249:D I *D gf180mcu_fd_sc_mcu7t5v0__dffsnq_1
*I *245:ZN O *D gf180mcu_fd_sc_mcu7t5v0__oai21_1
*CAP
1 *249:D 0.000310589
2 *245:ZN 0.000310589
3 *249:D *249:CLK 0.000241471
4 *249:D *31:12 0
*RES
1 *245:ZN *249:D 11.79 
*END

*D_NET *13 0.000730929
*CONN
*I *250:D I *D gf180mcu_fd_sc_mcu7t5v0__dffrnq_1
*I *247:ZN O *D gf180mcu_fd_sc_mcu7t5v0__aoi22_1
*CAP
1 *250:D 0.000255935
2 *247:ZN 0.000255935
3 *250:D *247:B1 6.76406e-05
4 *250:D *250:CLK 0.000151417
*RES
1 *247:ZN *250:D 20.16 
*END

*D_NET *14 0.00115448
*CONN
*I *251:D I *D gf180mcu_fd_sc_mcu7t5v0__dffrnq_1
*I *248:ZN O *D gf180mcu_fd_sc_mcu7t5v0__aoi21_1
*CAP
1 *251:D 0.000272929
2 *248:ZN 0.000272929
3 *251:D *247:B2 0
4 *251:D *250:CLK 0.000302466
5 *251:D *263:I 1.79733e-05
6 *251:D *26:6 0.000288178
*RES
1 *248:ZN *251:D 11.79 
*END

*D_NET *15 0.00110053
*CONN
*I *246:A1 I *D gf180mcu_fd_sc_mcu7t5v0__nand2_1
*I *233:ZN O *D gf180mcu_fd_sc_mcu7t5v0__clkinv_1
*CAP
1 *246:A1 0.000135128
2 *233:ZN 0.000135128
3 *246:A1 *233:I 8.49143e-05
4 *246:A1 *257:I 0.000136343
5 *246:A1 *27:12 0.000609014
6 *255:I *246:A1 0
*RES
1 *233:ZN *246:A1 10.89 
*END

*D_NET *16 0.00307787
*CONN
*I *248:A1 I *D gf180mcu_fd_sc_mcu7t5v0__aoi21_1
*I *235:ZN O *D gf180mcu_fd_sc_mcu7t5v0__clkinv_1
*CAP
1 *248:A1 0.000943299
2 *235:ZN 0.000943299
3 *248:A1 *235:I 0.000583917
4 *248:A1 *247:B1 0
5 *248:A1 *250:RN 0.000180193
6 *248:A1 *261:I 0
7 *248:A1 *17:10 0.000244819
8 *248:A1 *30:68 5.96096e-05
9 out_clk_cic *248:A1 0.00012273
*RES
1 *235:ZN *248:A1 26.37 
*END

*D_NET *17 0.00139247
*CONN
*I *248:A2 I *D gf180mcu_fd_sc_mcu7t5v0__aoi21_1
*I *247:B2 I *D gf180mcu_fd_sc_mcu7t5v0__aoi22_1
*I *236:Z O *D gf180mcu_fd_sc_mcu7t5v0__and2_1
*CAP
1 *248:A2 0
2 *247:B2 0.000198041
3 *236:Z 0.000237166
4 *17:10 0.000435207
5 *247:B2 *250:CLK 0.000277243
6 *17:10 *247:A2 0
7 *17:10 *247:B1 0
8 *248:A1 *17:10 0.000244819
9 *251:D *247:B2 0
*RES
1 *236:Z *17:10 15.21 
2 *17:10 *247:B2 6.39 
3 *17:10 *248:A2 4.5 
*END

*D_NET *18 0.00204902
*CONN
*I *242:A2 I *D gf180mcu_fd_sc_mcu7t5v0__nor3_1
*I *243:I0 I *D gf180mcu_fd_sc_mcu7t5v0__mux2_2
*I *238:Z O *D gf180mcu_fd_sc_mcu7t5v0__and2_1
*CAP
1 *242:A2 0.000254899
2 *243:I0 9.67996e-05
3 *238:Z 3.44897e-05
4 *18:6 0.000386188
5 *242:A2 *242:A3 0.000305733
6 *242:A2 *243:I1 2.5373e-05
7 *242:A2 *29:19 0.000903097
8 *243:I0 *243:I1 1.97486e-05
9 *243:I0 *243:S 1.07374e-05
10 *243:I0 *29:19 1.19491e-05
*RES
1 *238:Z *18:6 4.77 
2 *18:6 *243:I0 5.4 
3 *18:6 *242:A2 8.28 
*END

*D_NET *19 0.000206938
*CONN
*I *247:A1 I *D gf180mcu_fd_sc_mcu7t5v0__aoi22_1
*I *239:ZN O *D gf180mcu_fd_sc_mcu7t5v0__nand2_1
*CAP
1 *247:A1 0.000103469
2 *239:ZN 0.000103469
3 *247:A1 *248:B 0
*RES
1 *239:ZN *247:A1 9.81 
*END

*D_NET *20 0.000946647
*CONN
*I *248:B I *D gf180mcu_fd_sc_mcu7t5v0__aoi21_1
*I *240:ZN O *D gf180mcu_fd_sc_mcu7t5v0__aoi21_1
*CAP
1 *248:B 0.000294057
2 *240:ZN 0.000294057
3 *248:B *240:A1 5.5436e-05
4 *248:B *250:CLK 4.78445e-05
5 *248:B *26:6 5.77481e-05
6 *248:B *28:37 9.84908e-05
7 *248:B *28:74 9.90131e-05
8 *247:A1 *248:B 0
*RES
1 *240:ZN *248:B 11.7 
*END

*D_NET *21 0.00187116
*CONN
*I *243:I1 I *D gf180mcu_fd_sc_mcu7t5v0__mux2_2
*I *242:A3 I *D gf180mcu_fd_sc_mcu7t5v0__nor3_1
*I *241:ZN O *D gf180mcu_fd_sc_mcu7t5v0__nor2_1
*CAP
1 *243:I1 0.000379987
2 *242:A3 0.000329517
3 *241:ZN 0
4 *21:4 0.000709504
5 *243:I1 *243:S 1.19704e-05
6 *243:I1 *252:CLK 2.38983e-05
7 *242:A2 *242:A3 0.000305733
8 *242:A2 *243:I1 2.5373e-05
9 *243:I0 *243:I1 1.97486e-05
10 *254:D *242:A3 0
11 *254:D *243:I1 6.54322e-05
*RES
1 *241:ZN *21:4 4.5 
2 *21:4 *242:A3 7.47 
3 *21:4 *243:I1 7.02 
*END

*D_NET *22 0.000116659
*CONN
*I *245:B I *D gf180mcu_fd_sc_mcu7t5v0__oai21_1
*I *244:ZN O *D gf180mcu_fd_sc_mcu7t5v0__nand3_1
*CAP
1 *245:B 5.83293e-05
2 *244:ZN 5.83293e-05
*RES
1 *244:ZN *245:B 9.45 
*END

*D_NET *23 0.00117888
*CONN
*I *247:A2 I *D gf180mcu_fd_sc_mcu7t5v0__aoi22_1
*I *246:ZN O *D gf180mcu_fd_sc_mcu7t5v0__nand2_1
*CAP
1 *247:A2 0.00043729
2 *246:ZN 0.00043729
3 *247:A2 *236:A1 7.55765e-06
4 *247:A2 *239:A1 6.98495e-05
5 *247:A2 *239:A2 5.73801e-05
6 *247:A2 *27:12 0.000169515
7 *17:10 *247:A2 0
*RES
1 *246:ZN *247:A2 21.24 
*END

*D_NET *24 0.00175037
*CONN
*I *256:I I *D gf180mcu_fd_sc_mcu7t5v0__clkbuf_16
*I *257:I I *D gf180mcu_fd_sc_mcu7t5v0__clkbuf_16
*I *255:Z O *D gf180mcu_fd_sc_mcu7t5v0__clkbuf_16
*CAP
1 *256:I 0.000231345
2 *257:I 0.000437764
3 *255:Z 0.000128855
4 *24:9 0.000797965
5 *256:I *29:55 0
6 *257:I *233:I 1.80956e-05
7 *257:I *28:39 0
8 *257:I *29:49 0
9 *24:9 *28:39 0
10 *246:A1 *257:I 0.000136343
11 *255:I *256:I 0
12 *255:I *257:I 0
*RES
1 *255:Z *24:9 9.99 
2 *24:9 *257:I 12.06 
3 *24:9 *256:I 10.53 
*END

*D_NET *25 0.00405697
*CONN
*I *253:CLK I *D gf180mcu_fd_sc_mcu7t5v0__dffrnq_1
*I *252:CLK I *D gf180mcu_fd_sc_mcu7t5v0__dffrnq_1
*I *258:I I *D gf180mcu_fd_sc_mcu7t5v0__clkbuf_2
*I *254:CLK I *D gf180mcu_fd_sc_mcu7t5v0__dffrnq_1
*I *256:Z O *D gf180mcu_fd_sc_mcu7t5v0__clkbuf_16
*CAP
1 *253:CLK 0.000130251
2 *252:CLK 0.000566612
3 *258:I 0
4 *254:CLK 0.000421843
5 *256:Z 0.000130251
6 *25:19 0.000725839
7 *25:4 0.00058107
8 *252:CLK *237:A2 0
9 *252:CLK *243:S 0
10 *253:CLK *29:19 0.000121356
11 *243:I1 *252:CLK 2.38983e-05
12 *253:D *253:CLK 5.97457e-06
13 *254:D *252:CLK 5.69319e-05
14 *254:D *254:CLK 0.00107909
15 *254:D *25:19 0.000213855
*RES
1 *256:Z *25:4 4.5 
2 *25:4 *254:CLK 17.28 
3 *25:4 *25:19 1.53 
4 *25:19 *258:I 4.5 
5 *25:19 *252:CLK 8.46 
6 *256:Z *253:CLK 10.17 
*END

*D_NET *26 0.00424453
*CONN
*I *250:CLK I *D gf180mcu_fd_sc_mcu7t5v0__dffrnq_1
*I *251:CLK I *D gf180mcu_fd_sc_mcu7t5v0__dffrnq_1
*I *249:CLK I *D gf180mcu_fd_sc_mcu7t5v0__dffsnq_1
*I *257:Z O *D gf180mcu_fd_sc_mcu7t5v0__clkbuf_16
*CAP
1 *250:CLK 0.000433012
2 *251:CLK 0
3 *249:CLK 0.000688235
4 *257:Z 0
5 *26:6 0.000808321
6 *26:4 0.000553097
7 *249:CLK *244:A2 1.39839e-05
8 *249:CLK *260:I 0
9 *249:CLK *28:26 0.000326062
10 *249:CLK *28:37 3.22122e-05
11 *249:CLK *31:12 0
12 *250:CLK *239:A1 0
13 *250:CLK *239:A2 0
14 *250:CLK *263:I 0
15 *250:CLK *28:74 0
16 *26:6 *28:37 2.32355e-05
17 *247:B2 *250:CLK 0.000277243
18 *248:B *250:CLK 4.78445e-05
19 *248:B *26:6 5.77481e-05
20 *249:D *249:CLK 0.000241471
21 *250:D *250:CLK 0.000151417
22 *251:D *250:CLK 0.000302466
23 *251:D *26:6 0.000288178
*RES
1 *257:Z *26:4 4.5 
2 *26:4 *26:6 1.53 
3 *26:6 *249:CLK 10.17 
4 *26:6 *251:CLK 4.5 
5 *26:4 *250:CLK 8.55 
*END

*D_NET *27 0.00884696
*CONN
*I *239:A1 I *D gf180mcu_fd_sc_mcu7t5v0__nand2_1
*I *240:A1 I *D gf180mcu_fd_sc_mcu7t5v0__aoi21_1
*I *238:A1 I *D gf180mcu_fd_sc_mcu7t5v0__and2_1
*I *241:A1 I *D gf180mcu_fd_sc_mcu7t5v0__nor2_1
*I *237:B I *D gf180mcu_fd_sc_mcu7t5v0__aoi21_1
*I *233:I I *D gf180mcu_fd_sc_mcu7t5v0__clkinv_1
*I *252:Q O *D gf180mcu_fd_sc_mcu7t5v0__dffrnq_1
*CAP
1 *239:A1 0.000283424
2 *240:A1 0.000246154
3 *238:A1 0
4 *241:A1 0.000322209
5 *237:B 0.000152285
6 *233:I 5.53175e-05
7 *252:Q 8.60709e-05
8 *27:38 0.000397258
9 *27:23 0.000563004
10 *27:21 0.000581824
11 *27:12 0.000248266
12 *27:8 0.000562444
13 *233:I *29:49 1.37426e-05
14 *237:B *237:A2 0.00023711
15 *237:B *243:S 5.66716e-05
16 *237:B *28:39 0.000166798
17 *237:B *29:19 0.000297533
18 *237:B *29:34 0
19 *239:A1 *239:A2 0.00035741
20 *239:A1 *29:45 0.000106774
21 *240:A1 *28:37 0.000261155
22 *240:A1 *28:39 0.000489638
23 *240:A1 *28:74 1.06822e-05
24 *240:A1 *29:45 0
25 *240:A1 *29:49 1.58709e-05
26 *240:A1 *29:55 3.55118e-05
27 *241:A1 *237:A2 0
28 *241:A1 *241:A2 0.00062915
29 *241:A1 *252:RN 0
30 *241:A1 *28:39 0
31 *27:8 *29:34 8.25538e-05
32 *27:8 *29:45 5.05894e-05
33 *27:12 *236:A1 3.92905e-06
34 *27:12 *29:49 9.35522e-05
35 *27:23 *28:39 0.00140629
36 *27:23 *29:34 0
37 *27:23 *29:45 0
38 *27:38 *241:A2 2.36813e-05
39 *27:38 *252:RN 0
40 *27:38 *29:19 3.2326e-06
41 *246:A1 *233:I 8.49143e-05
42 *246:A1 *27:12 0.000609014
43 *247:A2 *239:A1 6.98495e-05
44 *247:A2 *27:12 0.000169515
45 *248:B *240:A1 5.5436e-05
46 *250:CLK *239:A1 0
47 *255:I *27:12 0
48 *257:I *233:I 1.80956e-05
*RES
1 *252:Q *27:8 9.99 
2 *27:8 *27:12 6.93 
3 *27:12 *233:I 4.95 
4 *27:12 *27:21 4.5 
5 *27:21 *27:23 3.69 
6 *27:23 *237:B 10.8 
7 *27:23 *27:38 4.95 
8 *27:38 *241:A1 16.2 
9 *27:38 *238:A1 4.5 
10 *27:21 *240:A1 11.52 
11 *27:8 *239:A1 11.52 
*END

*D_NET *28 0.0102468
*CONN
*I *236:A2 I *D gf180mcu_fd_sc_mcu7t5v0__and2_1
*I *239:A2 I *D gf180mcu_fd_sc_mcu7t5v0__nand2_1
*I *238:A2 I *D gf180mcu_fd_sc_mcu7t5v0__and2_1
*I *241:A2 I *D gf180mcu_fd_sc_mcu7t5v0__nor2_1
*I *237:A2 I *D gf180mcu_fd_sc_mcu7t5v0__aoi21_1
*I *240:A2 I *D gf180mcu_fd_sc_mcu7t5v0__aoi21_1
*I *244:A2 I *D gf180mcu_fd_sc_mcu7t5v0__nand3_1
*I *245:A2 I *D gf180mcu_fd_sc_mcu7t5v0__oai21_1
*I *253:Q O *D gf180mcu_fd_sc_mcu7t5v0__dffrnq_1
*CAP
1 *236:A2 0
2 *239:A2 0.000151245
3 *238:A2 0
4 *241:A2 0.000279457
5 *237:A2 0.000325507
6 *240:A2 0
7 *244:A2 0.000213324
8 *245:A2 0
9 *253:Q 5.74829e-05
10 *28:74 0.000365226
11 *28:52 0.000279457
12 *28:39 0.000754025
13 *28:37 0.000849956
14 *28:26 0.000511146
15 *28:6 0.000574495
16 *237:A2 *243:S 0.000151427
17 *239:A2 *236:A1 3.55118e-05
18 *241:A2 *29:19 0.000228173
19 *244:A2 *244:A1 0.000427025
20 *244:A2 *29:55 0.000177401
21 *244:A2 *30:12 6.85018e-05
22 *28:26 *29:55 0.000224602
23 *28:37 *29:55 7.55765e-06
24 *28:74 *236:A1 2.36914e-05
25 *28:74 *29:49 0.00030931
26 *237:B *237:A2 0.00023711
27 *237:B *28:39 0.000166798
28 *239:A1 *239:A2 0.00035741
29 *240:A1 *28:37 0.000261155
30 *240:A1 *28:39 0.000489638
31 *240:A1 *28:74 1.06822e-05
32 *241:A1 *237:A2 0
33 *241:A1 *241:A2 0.00062915
34 *241:A1 *28:39 0
35 *247:A2 *239:A2 5.73801e-05
36 *248:B *28:37 9.84908e-05
37 *248:B *28:74 9.90131e-05
38 *249:CLK *244:A2 1.39839e-05
39 *249:CLK *28:26 0.000326062
40 *249:CLK *28:37 3.22122e-05
41 *250:CLK *239:A2 0
42 *250:CLK *28:74 0
43 *252:CLK *237:A2 0
44 *257:I *28:39 0
45 *24:9 *28:39 0
46 *26:6 *28:37 2.32355e-05
47 *27:23 *28:39 0.00140629
48 *27:38 *241:A2 2.36813e-05
*RES
1 *253:Q *28:6 4.95 
2 *28:6 *245:A2 4.5 
3 *28:6 *244:A2 15.66 
4 *28:6 *28:26 3.33 
5 *28:26 *240:A2 4.5 
6 *28:26 *28:37 6.3 
7 *28:37 *28:39 5.31 
8 *28:39 *237:A2 11.7 
9 *28:39 *28:52 4.5 
10 *28:52 *241:A2 16.56 
11 *28:52 *238:A2 4.5 
12 *28:37 *28:74 6.75 
13 *28:74 *239:A2 6.12 
14 *28:74 *236:A2 4.5 
*END

*D_NET *29 0.0104104
*CONN
*I *243:S I *D gf180mcu_fd_sc_mcu7t5v0__mux2_2
*I *236:A1 I *D gf180mcu_fd_sc_mcu7t5v0__and2_1
*I *240:B I *D gf180mcu_fd_sc_mcu7t5v0__aoi21_1
*I *244:A1 I *D gf180mcu_fd_sc_mcu7t5v0__nand3_1
*I *245:A1 I *D gf180mcu_fd_sc_mcu7t5v0__oai21_1
*I *246:A2 I *D gf180mcu_fd_sc_mcu7t5v0__nand2_1
*I *237:A1 I *D gf180mcu_fd_sc_mcu7t5v0__aoi21_1
*I *242:A1 I *D gf180mcu_fd_sc_mcu7t5v0__nor3_1
*I *254:Q O *D gf180mcu_fd_sc_mcu7t5v0__dffrnq_1
*CAP
1 *243:S 0.000181138
2 *236:A1 1.69159e-05
3 *240:B 0
4 *244:A1 7.02782e-06
5 *245:A1 0
6 *246:A2 0
7 *237:A1 0.000278861
8 *242:A1 0
9 *254:Q 0.000367528
10 *29:55 0.000564028
11 *29:49 0.000912964
12 *29:45 0.000530682
13 *29:34 0.000855554
14 *29:19 0.00130174
15 *29:8 0.000873796
16 *244:A1 *30:12 0.000463466
17 *29:55 *30:12 0.000455766
18 *233:I *29:49 1.37426e-05
19 *237:A2 *243:S 0.000151427
20 *237:B *243:S 5.66716e-05
21 *237:B *29:19 0.000297533
22 *237:B *29:34 0
23 *239:A1 *29:45 0.000106774
24 *239:A2 *236:A1 3.55118e-05
25 *240:A1 *29:45 0
26 *240:A1 *29:49 1.58709e-05
27 *240:A1 *29:55 3.55118e-05
28 *241:A2 *29:19 0.000228173
29 *242:A2 *29:19 0.000903097
30 *243:I0 *243:S 1.07374e-05
31 *243:I0 *29:19 1.19491e-05
32 *243:I1 *243:S 1.19704e-05
33 *244:A2 *244:A1 0.000427025
34 *244:A2 *29:55 0.000177401
35 *247:A2 *236:A1 7.55765e-06
36 *252:D *237:A1 1.61174e-05
37 *252:D *243:S 0
38 *252:D *29:34 3.58953e-05
39 *252:CLK *243:S 0
40 *253:D *29:8 0.000137574
41 *253:D *29:19 0
42 *253:CLK *29:19 0.000121356
43 *255:I *29:34 0
44 *256:I *29:55 0
45 *257:I *29:49 0
46 *27:8 *29:34 8.25538e-05
47 *27:8 *29:45 5.05894e-05
48 *27:12 *236:A1 3.92905e-06
49 *27:12 *29:49 9.35522e-05
50 *27:23 *29:34 0
51 *27:23 *29:45 0
52 *27:38 *29:19 3.2326e-06
53 *28:26 *29:55 0.000224602
54 *28:37 *29:55 7.55765e-06
55 *28:74 *236:A1 2.36914e-05
56 *28:74 *29:49 0.00030931
*RES
1 *254:Q *29:8 7.2 
2 *29:8 *242:A1 4.5 
3 *29:8 *29:19 6.21 
4 *29:19 *237:A1 5.4 
5 *29:19 *29:34 9.36 
6 *29:34 *246:A2 9 
7 *29:34 *29:45 5.85 
8 *29:45 *29:49 3.24 
9 *29:49 *29:55 9.18 
10 *29:55 *245:A1 9 
11 *29:55 *244:A1 10.17 
12 *29:49 *240:B 4.5 
13 *29:45 *236:A1 4.77 
14 *237:A1 *243:S 10.98 
*END

*D_NET *30 0.0110158
*CONN
*I *250:RN I *D gf180mcu_fd_sc_mcu7t5v0__dffrnq_1
*I *251:RN I *D gf180mcu_fd_sc_mcu7t5v0__dffrnq_1
*I *249:SETN I *D gf180mcu_fd_sc_mcu7t5v0__dffsnq_1
*I *253:RN I *D gf180mcu_fd_sc_mcu7t5v0__dffrnq_1
*I *252:RN I *D gf180mcu_fd_sc_mcu7t5v0__dffrnq_1
*I *254:RN I *D gf180mcu_fd_sc_mcu7t5v0__dffrnq_1
*I *259:Z O *D gf180mcu_fd_sc_mcu7t5v0__dlyb_1
*CAP
1 *250:RN 0.000693265
2 *251:RN 0
3 *249:SETN 0.000484823
4 *253:RN 0
5 *252:RN 0.000782298
6 *254:RN 0.00062383
7 *259:Z 0
8 *30:68 0.00119352
9 *30:16 0.00174324
10 *30:12 0.00105757
11 *30:6 0.00132169
12 *30:4 0.00061666
13 *250:RN *235:I 0.00012796
14 *250:RN *262:I 7.73347e-05
15 *30:68 *263:I 8.91593e-05
16 *30:68 *34:8 2.55518e-05
17 out_clk1 *30:6 9.66079e-05
18 out_clk1 *30:12 0.000247389
19 out_clk2 *250:RN 0
20 out_clk2B *250:RN 4.10237e-05
21 out_clk_cic *250:RN 0
22 *241:A1 *252:RN 0
23 *244:A1 *30:12 0.000463466
24 *244:A2 *30:12 6.85018e-05
25 *248:A1 *250:RN 0.000180193
26 *248:A1 *30:68 5.96096e-05
27 *253:D *254:RN 1.08202e-05
28 *255:I *252:RN 0.00055557
29 *27:38 *252:RN 0
30 *29:55 *30:12 0.000455766
*RES
1 *259:Z *30:4 4.5 
2 *30:4 *30:6 0.99 
3 *30:6 *30:12 10.26 
4 *30:12 *30:16 7.29 
5 *30:16 *254:RN 17.28 
6 *30:16 *252:RN 10.53 
7 *30:12 *253:RN 9 
8 *30:6 *249:SETN 7.2 
9 *30:4 *30:68 12.6 
10 *30:68 *251:RN 4.5 
11 *30:68 *250:RN 9.63 
*END

*D_NET *31 0.00235443
*CONN
*I *244:A3 I *D gf180mcu_fd_sc_mcu7t5v0__nand3_1
*I *260:I I *D gf180mcu_fd_sc_mcu7t5v0__dlyb_1
*I *249:Q O *D gf180mcu_fd_sc_mcu7t5v0__dffsnq_1
*CAP
1 *244:A3 0
2 *260:I 0.000309038
3 *249:Q 0.000868177
4 *31:12 0.00117721
5 out_clk1 *260:I 0
6 *249:D *31:12 0
7 *249:CLK *260:I 0
8 *249:CLK *31:12 0
*RES
1 *249:Q *31:12 19.08 
2 *31:12 *260:I 6.57 
3 *31:12 *244:A3 4.5 
*END

*D_NET *32 0.00242654
*CONN
*I *234:I I *D gf180mcu_fd_sc_mcu7t5v0__clkinv_1
*I *261:I I *D gf180mcu_fd_sc_mcu7t5v0__dlyb_1
*I *250:Q O *D gf180mcu_fd_sc_mcu7t5v0__dffrnq_1
*CAP
1 *234:I 0
2 *261:I 0.000194246
3 *250:Q 0.000217567
4 *32:10 0.000411813
5 *261:I *247:B1 0.00104652
6 out_clk2 *261:I 2.35868e-05
7 out_clk2 *32:10 0.000146193
8 out_clk2B *32:10 0.000386615
9 *248:A1 *261:I 0
*RES
1 *250:Q *32:10 11.16 
2 *32:10 *261:I 11.79 
3 *32:10 *234:I 9 
*END

*D_NET *33 0.00322401
*CONN
*I *262:I I *D gf180mcu_fd_sc_mcu7t5v0__dlyb_1
*I *247:B1 I *D gf180mcu_fd_sc_mcu7t5v0__aoi22_1
*I *234:ZN O *D gf180mcu_fd_sc_mcu7t5v0__clkinv_1
*CAP
1 *262:I 0.000562376
2 *247:B1 0.00036267
3 *234:ZN 0
4 *33:4 0.000925046
5 out_clk2 *247:B1 0.000172556
6 out_clk2 *262:I 9.8582e-06
7 out_clk2B *262:I 0
8 *248:A1 *247:B1 0
9 *250:D *247:B1 6.76406e-05
10 *250:RN *262:I 7.73347e-05
11 *261:I *247:B1 0.00104652
12 *17:10 *247:B1 0
*RES
1 *234:ZN *33:4 4.5 
2 *33:4 *247:B1 18.09 
3 *33:4 *262:I 8.28 
*END

*D_NET *34 0.00345488
*CONN
*I *235:I I *D gf180mcu_fd_sc_mcu7t5v0__clkinv_1
*I *263:I I *D gf180mcu_fd_sc_mcu7t5v0__dlyb_1
*I *251:Q O *D gf180mcu_fd_sc_mcu7t5v0__dffrnq_1
*CAP
1 *235:I 0.000128599
2 *263:I 0.000592584
3 *251:Q 9.17785e-05
4 *34:8 0.000812961
5 out_clk_cic *263:I 0.000382866
6 out_clk_cic *34:8 0.000601531
7 *248:A1 *235:I 0.000583917
8 *250:RN *235:I 0.00012796
9 *250:CLK *263:I 0
10 *251:D *263:I 1.79733e-05
11 *30:68 *263:I 8.91593e-05
12 *30:68 *34:8 2.55518e-05
*RES
1 *251:Q *34:8 10.53 
2 *34:8 *263:I 13.68 
3 *34:8 *235:I 10.8 
*END
