*SPEF "ieee 1481-1999"
*DESIGN "piso_12bit"
*DATE "09:55:01 Tuesday August 25, 2026"
*VENDOR "The OpenROAD Project"
*PROGRAM "OpenROAD"
*VERSION "26Q1-1024-gdcf36133a"
*DESIGN_FLOW "NAME_SCOPE LOCAL" "PIN_CAP NONE"
*DIVIDER /
*DELIMITER :
*BUS_DELIMITER []
*T_UNIT 1 NS
*C_UNIT 1 PF
*R_UNIT 1 OHM
*L_UNIT 1 HENRY

*NAME_MAP
*3 clk
*4 data_in[0]
*5 data_in[10]
*6 data_in[11]
*7 data_in[1]
*8 data_in[2]
*9 data_in[3]
*10 data_in[4]
*11 data_in[5]
*12 data_in[6]
*13 data_in[7]
*14 data_in[8]
*15 data_in[9]
*16 load_en
*17 rst_n
*18 serial_out
*19 _00_
*20 _01_
*21 _02_
*22 _03_
*23 _04_
*24 _05_
*25 _06_
*26 _07_
*27 _08_
*28 _09_
*29 _10_
*30 _11_
*31 _12_
*32 _13_
*33 _14_
*34 _15_
*35 _16_
*36 _17_
*37 _18_
*38 _19_
*39 _20_
*40 _21_
*41 _22_
*42 _23_
*43 _24_
*44 _25_
*45 _26_
*46 _27_
*47 _28_
*48 _29_
*49 _30_
*50 _31_
*51 _32_
*52 _33_
*53 clknet_0_clk
*54 clknet_1_0__leaf_clk
*55 clknet_1_1__leaf_clk
*56 net1
*57 net10
*58 net11
*59 net12
*60 net13
*61 net14
*62 net15
*63 net2
*64 net3
*65 net4
*66 net5
*67 net6
*68 net7
*69 net8
*70 net9
*71 shift_reg\[0\]
*72 shift_reg\[10\]
*73 shift_reg\[1\]
*74 shift_reg\[2\]
*75 shift_reg\[3\]
*76 shift_reg\[4\]
*77 shift_reg\[5\]
*78 shift_reg\[6\]
*79 shift_reg\[7\]
*80 shift_reg\[8\]
*81 shift_reg\[9\]
*82 FILLER_0_104
*83 FILLER_0_106
*84 FILLER_0_18
*85 FILLER_0_20
*86 FILLER_10_104
*87 FILLER_10_106
*88 FILLER_10_2
*89 FILLER_10_36
*90 FILLER_10_52
*91 FILLER_1_106
*92 FILLER_1_18
*93 FILLER_1_20
*94 FILLER_1_55
*95 FILLER_2_18
*96 FILLER_3_106
*97 FILLER_4_34
*98 FILLER_4_37
*99 FILLER_5_106
*100 FILLER_5_2
*101 FILLER_5_69
*102 FILLER_6_47
*103 FILLER_6_49
*104 FILLER_7_106
*105 FILLER_8_103
*106 FILLER_8_26
*107 FILLER_8_28
*108 FILLER_8_33
*109 FILLER_8_41
*110 FILLER_8_45
*111 FILLER_8_47
*112 FILLER_9_2
*113 FILLER_9_38
*114 FILLER_9_46
*115 FILLER_9_50
*116 FILLER_9_60
*117 FILLER_9_72
*118 FILLER_9_74
*119 PHY_EDGE_ROW_0_Left_11
*120 PHY_EDGE_ROW_0_Right_0
*121 PHY_EDGE_ROW_10_Left_21
*122 PHY_EDGE_ROW_10_Right_10
*123 PHY_EDGE_ROW_1_Left_12
*124 PHY_EDGE_ROW_1_Right_1
*125 PHY_EDGE_ROW_2_Left_13
*126 PHY_EDGE_ROW_2_Right_2
*127 PHY_EDGE_ROW_3_Left_14
*128 PHY_EDGE_ROW_3_Right_3
*129 PHY_EDGE_ROW_4_Left_15
*130 PHY_EDGE_ROW_4_Right_4
*131 PHY_EDGE_ROW_5_Left_16
*132 PHY_EDGE_ROW_5_Right_5
*133 PHY_EDGE_ROW_6_Left_17
*134 PHY_EDGE_ROW_6_Right_6
*135 PHY_EDGE_ROW_7_Left_18
*136 PHY_EDGE_ROW_7_Right_7
*137 PHY_EDGE_ROW_8_Left_19
*138 PHY_EDGE_ROW_8_Right_8
*139 PHY_EDGE_ROW_9_Left_20
*140 PHY_EDGE_ROW_9_Right_9
*141 TAP_TAPCELL_ROW_0_22
*142 TAP_TAPCELL_ROW_0_23
*143 TAP_TAPCELL_ROW_0_24
*144 TAP_TAPCELL_ROW_10_38
*145 TAP_TAPCELL_ROW_10_39
*146 TAP_TAPCELL_ROW_10_40
*147 TAP_TAPCELL_ROW_1_25
*148 TAP_TAPCELL_ROW_2_26
*149 TAP_TAPCELL_ROW_2_27
*150 TAP_TAPCELL_ROW_3_28
*151 TAP_TAPCELL_ROW_4_29
*152 TAP_TAPCELL_ROW_4_30
*153 TAP_TAPCELL_ROW_5_31
*154 TAP_TAPCELL_ROW_6_32
*155 TAP_TAPCELL_ROW_6_33
*156 TAP_TAPCELL_ROW_7_34
*157 TAP_TAPCELL_ROW_8_35
*158 TAP_TAPCELL_ROW_8_36
*159 TAP_TAPCELL_ROW_9_37
*160 _34_
*161 _35_
*162 _36_
*163 _37_
*164 _38_
*165 _39_
*166 _40_
*167 _41_
*168 _42_
*169 _43_
*170 _44_
*171 _45_
*172 _46_
*173 _47_
*174 _48_
*175 _49_
*176 _50_
*177 _51_
*178 _52_
*179 _53_
*180 _54_
*181 _55_
*182 _56_
*183 _57_
*184 _58_
*185 _59_
*186 _60_
*187 _61_
*188 _62_
*189 _63_
*190 _64_
*191 _65_
*192 _66_
*193 _67_
*194 _68_
*195 _69_
*196 _70_
*197 _71_
*198 _72_
*199 _73_
*200 _74_
*201 _75_
*202 _76_
*203 _77_
*204 _78_
*205 _79_
*206 clkbuf_0_clk
*207 clkbuf_1_0__f_clk
*208 clkbuf_1_1__f_clk
*209 clkload0
*210 input1
*211 input10
*212 input11
*213 input12
*214 input13
*215 input14
*216 input2
*217 input3
*218 input4
*219 input5
*220 input6
*221 input7
*222 input8
*223 input9
*224 output15

*PORTS
clk I
data_in[0] I
data_in[10] I
data_in[11] I
data_in[1] I
data_in[2] I
data_in[3] I
data_in[4] I
data_in[5] I
data_in[6] I
data_in[7] I
data_in[8] I
data_in[9] I
load_en I
rst_n I
serial_out O

*D_NET *3 0.00554743
*CONN
*P clk I
*I *206:I I *D gf180mcu_fd_sc_mcu7t5v0__clkbuf_16
*CAP
1 clk 0.00176276
2 *206:I 0.00176276
3 *206:I *166:I 0
4 *206:I *167:I 0.000113682
5 *206:I *168:I 1.0415e-05
6 *206:I *170:I 1.48164e-05
7 *206:I *175:A1 2.89427e-06
8 *206:I *175:A2 0
9 *206:I *180:A2 3.38355e-05
10 *206:I *192:A2 6.2083e-06
11 *206:I *200:RN 0.000504233
12 *206:I *201:CLK 0.000156172
13 *206:I *204:RN 0.000353557
14 *206:I *212:I 0.000582911
15 *206:I *60:206 0.00024318
*RES
1 clk *206:I 23.715 
*END

*D_NET *4 0.00155913
*CONN
*P data_in[0] I
*I *210:I I *D gf180mcu_fd_sc_mcu7t5v0__dlyb_1
*CAP
1 data_in[0] 0.000359616
2 *210:I 0.000359616
3 *210:I *171:A1 0
4 *210:I *172:A1 1.0415e-05
5 *210:I *219:I 0.000829481
*RES
1 data_in[0] *210:I 13.095 
*END

*D_NET *5 0.00381197
*CONN
*P data_in[10] I
*I *216:I I *D gf180mcu_fd_sc_mcu7t5v0__dlyb_1
*CAP
1 data_in[10] 0.00051621
2 *216:I 0.00051621
3 *216:I serial_out 0.000556577
4 *216:I *169:I 0.000283695
5 *216:I *189:A1 0.000153947
6 *216:I *190:A2 0.000365445
7 *216:I *202:D 3.34892e-05
8 *216:I *213:I 0
9 *216:I *217:I 0.00129725
10 *216:I *224:I 1.49624e-05
11 *216:I *60:230 7.41861e-05
*RES
1 data_in[10] *216:I 17.955 
*END

*D_NET *6 0.00327466
*CONN
*P data_in[11] I
*I *217:I I *D gf180mcu_fd_sc_mcu7t5v0__dlyb_1
*CAP
1 data_in[11] 0.00078415
2 *217:I 0.00078415
3 *217:I *166:I 0.000103772
4 *217:I *169:I 0.000283695
5 *217:I *201:RN 0
6 *217:I *202:D 0
7 *217:I *60:230 2.1644e-05
8 *217:I *61:104 0
9 *216:I *217:I 0.00129725
*RES
1 data_in[11] *217:I 17.775 
*END

*D_NET *7 0.00232812
*CONN
*P data_in[1] I
*I *218:I I *D gf180mcu_fd_sc_mcu7t5v0__dlyb_1
*CAP
1 data_in[1] 0.000550312
2 *218:I 0.000550312
3 *218:I *171:A1 0.000143302
4 *218:I *172:A1 4.34199e-06
5 *218:I *219:I 0.00107985
*RES
1 data_in[1] *218:I 15.255 
*END

*D_NET *8 0.00229214
*CONN
*P data_in[2] I
*I *219:I I *D gf180mcu_fd_sc_mcu7t5v0__dlyb_1
*CAP
1 data_in[2] 0.000188388
2 *219:I 0.000188388
3 *219:I *171:A1 6.03879e-06
4 *210:I *219:I 0.000829481
5 *218:I *219:I 0.00107985
*RES
1 data_in[2] *219:I 13.815 
*END

*D_NET *9 0.00164269
*CONN
*P data_in[3] I
*I *220:I I *D gf180mcu_fd_sc_mcu7t5v0__dlyb_1
*CAP
1 data_in[3] 0.000821346
2 *220:I 0.000821346
*RES
1 data_in[3] *220:I 10.665 
*END

*D_NET *10 0.00762185
*CONN
*P data_in[4] I
*I *221:I I *D gf180mcu_fd_sc_mcu7t5v0__dlyb_1
*CAP
1 data_in[4] 0.00150469
2 *221:I 0.00150469
3 *221:I *178:A2 0.00133264
4 *221:I *178:B 0.00131237
5 *221:I *192:A1 6.84825e-05
6 *221:I *196:D 0.000915153
7 *221:I *203:RN 0
8 *221:I *215:I 0.00087779
9 *221:I *61:10 0
10 *221:I *61:86 0
11 *221:I *61:122 0.000106027
*RES
1 data_in[4] *221:I 35.955 
*END

*D_NET *11 0.00326116
*CONN
*P data_in[5] I
*I *222:I I *D gf180mcu_fd_sc_mcu7t5v0__dlyb_1
*CAP
1 data_in[5] 0.000762047
2 *222:I 0.000762047
3 *222:I *166:I 4.78445e-05
4 *222:I *196:D 0.000116082
5 *222:I *196:CLK 0.000203423
6 *222:I *198:RN 0.000294421
7 *222:I *203:RN 0.000700416
8 *222:I *215:I 0.000318962
9 *222:I *55:65 5.5916e-05
*RES
1 data_in[5] *222:I 17.505 
*END

*D_NET *12 0.00202385
*CONN
*P data_in[6] I
*I *223:I I *D gf180mcu_fd_sc_mcu7t5v0__dlyb_1
*CAP
1 data_in[6] 0.000536222
2 *223:I 0.000536222
3 *223:I *160:I 8.18942e-05
4 *223:I *172:A1 0.000181584
5 *223:I *199:D 3.22114e-05
6 *223:I *199:CLK 0.000655718
7 *223:I *214:I 0
*RES
1 data_in[6] *223:I 14.175 
*END

*D_NET *13 0.00124651
*CONN
*P data_in[7] I
*I *211:I I *D gf180mcu_fd_sc_mcu7t5v0__dlyb_1
*CAP
1 data_in[7] 5.46903e-05
2 *211:I 5.46903e-05
3 *211:I *160:I 3.98088e-05
4 *211:I *212:I 0.00054866
5 *211:I *214:I 0.00054866
*RES
1 data_in[7] *211:I 12.195 
*END

*D_NET *14 0.00168234
*CONN
*P data_in[8] I
*I *212:I I *D gf180mcu_fd_sc_mcu7t5v0__dlyb_1
*CAP
1 data_in[8] 0.00013289
2 *212:I 0.00013289
3 *212:I *160:I 0.000284991
4 *206:I *212:I 0.000582911
5 *211:I *212:I 0.00054866
*RES
1 data_in[8] *212:I 12.915 
*END

*D_NET *15 0.00251318
*CONN
*P data_in[9] I
*I *213:I I *D gf180mcu_fd_sc_mcu7t5v0__dlyb_1
*CAP
1 data_in[9] 0.00125659
2 *213:I 0.00125659
3 *216:I *213:I 0
*RES
1 data_in[9] *213:I 22.905 
*END

*D_NET *16 0.00140299
*CONN
*P load_en I
*I *214:I I *D gf180mcu_fd_sc_mcu7t5v0__dlyb_1
*CAP
1 load_en 0.000335341
2 *214:I 0.000335341
3 *214:I *160:I 0.000183652
4 *211:I *214:I 0.00054866
5 *223:I *214:I 0
*RES
1 load_en *214:I 13.095 
*END

*D_NET *17 0.00358634
*CONN
*P rst_n I
*I *215:I I *D gf180mcu_fd_sc_mcu7t5v0__dlyb_1
*CAP
1 rst_n 0.000909129
2 *215:I 0.000909129
3 *215:I *179:A2 2.14747e-05
4 *215:I *197:D 0.000272073
5 *215:I *198:D 0.000219834
6 *215:I *61:122 5.79501e-05
7 *221:I *215:I 0.00087779
8 *222:I *215:I 0.000318962
*RES
1 rst_n *215:I 19.575 
*END

*D_NET *18 0.00150884
*CONN
*P serial_out O
*I *224:Z O *D gf180mcu_fd_sc_mcu7t5v0__dlyb_1
*CAP
1 serial_out 0.000428568
2 *224:Z 0.000428568
3 serial_out *189:A2 8.52804e-05
4 serial_out *224:I 9.8423e-06
5 *216:I serial_out 0.000556577
*RES
1 *224:Z serial_out 13.635 
*END

*D_NET *19 0.00273333
*CONN
*I *204:D I *D gf180mcu_fd_sc_mcu7t5v0__dffrnq_1
*I *193:Z O *D gf180mcu_fd_sc_mcu7t5v0__and2_1
*CAP
1 *204:D 0.000987826
2 *193:Z 0.000987826
3 *204:D *174:A2 7.67171e-05
4 *204:D *186:A2 0.000463165
5 *204:D *204:CLK 0.000130638
6 *204:D *60:44 6.65549e-05
7 *204:D *60:50 2.89427e-06
8 *204:D *60:156 6.1299e-06
9 *204:D *60:167 1.15771e-05
*RES
1 *193:Z *204:D 16.02 
*END

*D_NET *20 0.000857369
*CONN
*I *202:D I *D gf180mcu_fd_sc_mcu7t5v0__dffrnq_1
*I *190:ZN O *D gf180mcu_fd_sc_mcu7t5v0__oai21_1
*CAP
1 *202:D 0.000379116
2 *190:ZN 0.000379116
3 *202:D *190:A2 7.55765e-06
4 *202:D *190:B 0
5 *202:D *224:I 5.80906e-05
6 *216:I *202:D 3.34892e-05
7 *217:I *202:D 0
*RES
1 *190:ZN *202:D 11.79 
*END

*D_NET *21 0.00409351
*CONN
*I *203:D I *D gf180mcu_fd_sc_mcu7t5v0__dffrnq_1
*I *192:ZN O *D gf180mcu_fd_sc_mcu7t5v0__oai21_1
*CAP
1 *203:D 0.000613596
2 *192:ZN 0.000613596
3 *203:D *178:A2 1.51153e-05
4 *203:D *192:A2 0.000842673
5 *203:D *192:B 0.000319821
6 *203:D *195:CLK 1.20833e-05
7 *203:D *197:D 0.0001344
8 *203:D *198:CLK 3.73774e-06
9 *203:D *203:CLK 6.62341e-05
10 *203:D *55:6 2.94847e-05
11 *203:D *55:14 0.000419758
12 *203:D *61:10 0
13 *203:D *61:86 0
14 *203:D *61:97 0.000169524
15 *203:D *61:104 0.000853483
*RES
1 *192:ZN *203:D 25.83 
*END

*D_NET *22 0.00414836
*CONN
*I *205:D I *D gf180mcu_fd_sc_mcu7t5v0__dffrnq_1
*I *172:ZN O *D gf180mcu_fd_sc_mcu7t5v0__oai21_1
*CAP
1 *205:D 0.000414053
2 *172:ZN 0.000414053
3 *205:D *176:A1 0
4 *205:D *178:A2 0.000112253
5 *205:D *180:B 0.00120028
6 *205:D *192:A2 0.000183662
7 *205:D *195:CLK 0.00172399
8 *205:D *197:D 0
9 *205:D *60:73 1.30221e-05
10 *205:D *60:98 8.70391e-05
*RES
1 *172:ZN *205:D 24.84 
*END

*D_NET *23 0.000706026
*CONN
*I *194:D I *D gf180mcu_fd_sc_mcu7t5v0__dffrnq_1
*I *174:ZN O *D gf180mcu_fd_sc_mcu7t5v0__oai21_1
*CAP
1 *194:D 0.000155216
2 *174:ZN 0.000155216
3 *194:D *178:A1 0
4 *194:D *179:A1 0.000365445
5 *194:D *182:A1 3.01487e-05
*RES
1 *174:ZN *194:D 10.44 
*END

*D_NET *24 0.000993521
*CONN
*I *195:D I *D gf180mcu_fd_sc_mcu7t5v0__dffrnq_1
*I *176:ZN O *D gf180mcu_fd_sc_mcu7t5v0__oai21_1
*CAP
1 *195:D 0.000370265
2 *176:ZN 0.000370265
3 *195:D *167:I 1.36713e-05
4 *195:D *176:A1 8.49208e-05
5 *195:D *180:B 1.11402e-05
6 *195:D *61:27 0.000143259
*RES
1 *176:ZN *195:D 11.52 
*END

*D_NET *25 0.0077128
*CONN
*I *196:D I *D gf180mcu_fd_sc_mcu7t5v0__dffrnq_1
*I *178:ZN O *D gf180mcu_fd_sc_mcu7t5v0__oai21_1
*CAP
1 *196:D 0.000663167
2 *178:ZN 0.000663167
3 *196:D *177:A2 0.0006195
4 *196:D *178:B 0.000614919
5 *196:D *179:A2 0.00403307
6 *196:D *198:RN 6.92926e-05
7 *196:D *203:RN 1.84476e-05
8 *221:I *196:D 0.000915153
9 *222:I *196:D 0.000116082
*RES
1 *178:ZN *196:D 32.85 
*END

*D_NET *26 0.00363213
*CONN
*I *197:D I *D gf180mcu_fd_sc_mcu7t5v0__dffrnq_1
*I *180:ZN O *D gf180mcu_fd_sc_mcu7t5v0__oai21_1
*CAP
1 *197:D 0.000951952
2 *180:ZN 0.000951952
3 *197:D *165:I 0.000435201
4 *197:D *175:A2 3.71185e-05
5 *197:D *180:A1 8.49208e-05
6 *197:D *182:A2 0.000264147
7 *197:D *195:CLK 0
8 *197:D *198:D 0
9 *197:D *201:CLK 3.44895e-05
10 *197:D *203:RN 0.000169515
11 *197:D *55:14 0.00014089
12 *197:D *60:124 0.00015547
13 *197:D *61:86 0
14 *197:D *61:122 0
15 *203:D *197:D 0.0001344
16 *205:D *197:D 0
17 *215:I *197:D 0.000272073
*RES
1 *180:ZN *197:D 27.63 
*END

*D_NET *27 0.00788647
*CONN
*I *198:D I *D gf180mcu_fd_sc_mcu7t5v0__dffrnq_1
*I *182:ZN O *D gf180mcu_fd_sc_mcu7t5v0__oai21_1
*CAP
1 *198:D 0.00193022
2 *182:ZN 0.00193022
3 *198:D *174:B 0.000212958
4 *198:D *176:B 0.000581894
5 *198:D *182:B 0.00116235
6 *198:D *194:CLK 0.000102923
7 *198:D *196:RN 7.96333e-06
8 *198:D *198:CLK 0.000291776
9 *198:D *201:CLK 1.32256e-06
10 *198:D *60:44 4.37562e-05
11 *198:D *61:97 0.000649549
12 *198:D *61:104 0.000751703
13 *197:D *198:D 0
14 *215:I *198:D 0.000219834
*RES
1 *182:ZN *198:D 34.38 
*END

*D_NET *28 0.00464318
*CONN
*I *199:D I *D gf180mcu_fd_sc_mcu7t5v0__dffrnq_1
*I *184:ZN O *D gf180mcu_fd_sc_mcu7t5v0__oai21_1
*CAP
1 *199:D 0.000738722
2 *184:ZN 0.000738722
3 *199:D *160:I 0.000183662
4 *199:D *171:A1 0.000260146
5 *199:D *171:A2 0.000328539
6 *199:D *172:A1 0.000353247
7 *199:D *181:A2 0.000601531
8 *199:D *184:A1 2.61478e-05
9 *199:D *184:A2 0.000129618
10 *199:D *186:B 0.000365445
11 *199:D *199:CLK 2.36152e-06
12 *199:D *200:CLK 6.2979e-05
13 *199:D *204:RN 0
14 *199:D *54:43 0.000302466
15 *199:D *60:10 0.000455757
16 *199:D *60:269 6.16286e-05
17 *223:I *199:D 3.22114e-05
*RES
1 *184:ZN *199:D 27 
*END

*D_NET *29 0.00090246
*CONN
*I *200:D I *D gf180mcu_fd_sc_mcu7t5v0__dffrnq_1
*I *186:ZN O *D gf180mcu_fd_sc_mcu7t5v0__oai21_1
*CAP
1 *200:D 0.000190526
2 *186:ZN 0.000190526
3 *200:D *184:A2 0.000400968
4 *200:D *186:A2 0.000111983
5 *200:D *60:44 8.45601e-06
*RES
1 *186:ZN *200:D 11.16 
*END

*D_NET *30 0.000768977
*CONN
*I *201:D I *D gf180mcu_fd_sc_mcu7t5v0__dffrnq_1
*I *188:ZN O *D gf180mcu_fd_sc_mcu7t5v0__oai21_1
*CAP
1 *201:D 0.000161604
2 *188:ZN 0.000161604
3 *201:D *178:A2 0.00029775
4 *201:D *188:A2 0.000148019
*RES
1 *188:ZN *201:D 10.5107 
*END

*D_NET *31 0.00316972
*CONN
*I *172:A1 I *D gf180mcu_fd_sc_mcu7t5v0__oai21_1
*I *160:ZN O *D gf180mcu_fd_sc_mcu7t5v0__clkinv_1
*CAP
1 *172:A1 0.001026
2 *160:ZN 0.001026
3 *172:A1 *171:A1 1.77471e-05
4 *172:A1 *172:B 0.000100258
5 *172:A1 *173:A2 0
6 *172:A1 *174:A2 1.79536e-05
7 *172:A1 *180:B 0.000143429
8 *172:A1 *182:A2 0
9 *172:A1 *199:CLK 0.000105089
10 *172:A1 *60:50 0.000172257
11 *172:A1 *61:31 1.14052e-05
12 *199:D *172:A1 0.000353247
13 *210:I *172:A1 1.0415e-05
14 *218:I *172:A1 4.34199e-06
15 *223:I *172:A1 0.000181584
*RES
1 *160:ZN *172:A1 26.37 
*END

*D_NET *32 0.00542232
*CONN
*I *174:A2 I *D gf180mcu_fd_sc_mcu7t5v0__oai21_1
*I *161:ZN O *D gf180mcu_fd_sc_mcu7t5v0__clkinv_1
*CAP
1 *174:A2 0.000939341
2 *161:ZN 0.000939341
3 *174:A2 *161:I 0.00104183
4 *174:A2 *173:A2 0.000703927
5 *174:A2 *181:A1 3.12451e-05
6 *174:A2 *182:A1 0.000363257
7 *174:A2 *182:A2 0.000710213
8 *174:A2 *194:CLK 1.22736e-05
9 *174:A2 *204:CLK 0.000415035
10 *174:A2 *60:50 0.000171194
11 *172:A1 *174:A2 1.79536e-05
12 *204:D *174:A2 7.67171e-05
*RES
1 *161:ZN *174:A2 28.35 
*END

*D_NET *33 0.00264215
*CONN
*I *176:A2 I *D gf180mcu_fd_sc_mcu7t5v0__oai21_1
*I *162:ZN O *D gf180mcu_fd_sc_mcu7t5v0__clkinv_1
*CAP
1 *176:A2 0.000512834
2 *162:ZN 0.000512834
3 *176:A2 *162:I 0.000317599
4 *176:A2 *167:I 5.32082e-05
5 *176:A2 *173:A1 9.84908e-05
6 *176:A2 *173:A2 0.000339626
7 *176:A2 *174:B 0.000679679
8 *176:A2 *198:CLK 2.93836e-05
9 *176:A2 *200:RN 9.85004e-05
*RES
1 *162:ZN *176:A2 14.76 
*END

*D_NET *34 0.00873507
*CONN
*I *178:A2 I *D gf180mcu_fd_sc_mcu7t5v0__oai21_1
*I *163:ZN O *D gf180mcu_fd_sc_mcu7t5v0__clkinv_1
*CAP
1 *178:A2 0.00174777
2 *163:ZN 0.00174777
3 *178:A2 *163:I 0.000633147
4 *178:A2 *168:I 1.19491e-05
5 *178:A2 *175:A2 0.000142262
6 *178:A2 *177:A1 9.85004e-05
7 *178:A2 *177:A2 4.5501e-05
8 *178:A2 *178:A1 0.000206958
9 *178:A2 *178:B 0.000341734
10 *178:A2 *182:A2 0.000194794
11 *178:A2 *188:A2 8.01743e-05
12 *178:A2 *188:B 0.000600587
13 *178:A2 *192:A1 1.24166e-05
14 *178:A2 *192:A2 8.35241e-05
15 *178:A2 *192:B 0
16 *178:A2 *201:CLK 0.00053521
17 *178:A2 *208:I 0.000185038
18 *178:A2 *53:13 0.000171658
19 *178:A2 *60:73 0
20 *178:A2 *60:98 0
21 *178:A2 *60:104 0.000138314
22 *201:D *178:A2 0.00029775
23 *203:D *178:A2 1.51153e-05
24 *205:D *178:A2 0.000112253
25 *221:I *178:A2 0.00133264
*RES
1 *163:ZN *178:A2 36.45 
*END

*D_NET *35 0.00356582
*CONN
*I *180:A2 I *D gf180mcu_fd_sc_mcu7t5v0__oai21_1
*I *164:ZN O *D gf180mcu_fd_sc_mcu7t5v0__clkinv_1
*CAP
1 *180:A2 0.000547375
2 *164:ZN 0.000547375
3 *180:A2 *162:I 0.00100064
4 *180:A2 *164:I 2.53811e-05
5 *180:A2 *168:I 8.01793e-05
6 *180:A2 *175:A1 9.84908e-05
7 *180:A2 *175:A2 0.000205716
8 *180:A2 *176:B 0.000560191
9 *180:A2 *60:206 0.000466627
10 *206:I *180:A2 3.38355e-05
*RES
1 *164:ZN *180:A2 15.93 
*END

*D_NET *36 0.00905772
*CONN
*I *182:A2 I *D gf180mcu_fd_sc_mcu7t5v0__oai21_1
*I *165:ZN O *D gf180mcu_fd_sc_mcu7t5v0__clkinv_1
*CAP
1 *182:A2 0.000971069
2 *165:ZN 0.000971069
3 *182:A2 *165:I 0.000862157
4 *182:A2 *173:A2 0.000203447
5 *182:A2 *174:B 2.78741e-05
6 *182:A2 *176:A1 0.000534585
7 *182:A2 *176:B 1.85882e-06
8 *182:A2 *187:A1 0.000449809
9 *182:A2 *187:A2 0.000266954
10 *182:A2 *188:B 0.000495339
11 *182:A2 *192:A2 0.00186693
12 *182:A2 *198:CLK 0.000154597
13 *182:A2 *201:CLK 0.000430467
14 *182:A2 *208:I 0.000185038
15 *182:A2 *53:13 0.000176401
16 *182:A2 *61:27 4.71736e-05
17 *182:A2 *61:31 0.000159551
18 *182:A2 *61:48 8.42533e-05
19 *172:A1 *182:A2 0
20 *174:A2 *182:A2 0.000710213
21 *178:A2 *182:A2 0.000194794
22 *197:D *182:A2 0.000264147
*RES
1 *165:ZN *182:A2 33.3 
*END

*D_NET *37 0.00257742
*CONN
*I *184:A2 I *D gf180mcu_fd_sc_mcu7t5v0__oai21_1
*I *166:ZN O *D gf180mcu_fd_sc_mcu7t5v0__clkinv_1
*CAP
1 *184:A2 0.000327437
2 *166:ZN 0.000327437
3 *184:A2 *181:A2 0.000464373
4 *184:A2 *182:B 8.90719e-06
5 *184:A2 *186:A2 4.51525e-05
6 *184:A2 *200:CLK 9.04462e-05
7 *184:A2 *54:43 0.000567799
8 *184:A2 *60:38 0.000154648
9 *184:A2 *60:156 1.0415e-05
10 *184:A2 *60:167 5.02239e-05
11 *199:D *184:A2 0.000129618
12 *200:D *184:A2 0.000400968
*RES
1 *166:ZN *184:A2 22.23 
*END

*D_NET *38 0.00126888
*CONN
*I *186:A2 I *D gf180mcu_fd_sc_mcu7t5v0__oai21_1
*I *167:ZN O *D gf180mcu_fd_sc_mcu7t5v0__clkinv_1
*CAP
1 *186:A2 0.000319084
2 *167:ZN 0.000319084
3 *186:A2 *60:167 1.0415e-05
4 *184:A2 *186:A2 4.51525e-05
5 *200:D *186:A2 0.000111983
6 *204:D *186:A2 0.000463165
*RES
1 *167:ZN *186:A2 12.15 
*END

*D_NET *39 0.00100576
*CONN
*I *188:A2 I *D gf180mcu_fd_sc_mcu7t5v0__oai21_1
*I *168:ZN O *D gf180mcu_fd_sc_mcu7t5v0__clkinv_1
*CAP
1 *188:A2 0.000145646
2 *168:ZN 0.000145646
3 *188:A2 *168:I 0.00013423
4 *188:A2 *201:CLK 0.000352047
5 *178:A2 *188:A2 8.01743e-05
6 *201:D *188:A2 0.000148019
*RES
1 *168:ZN *188:A2 10.89 
*END

*D_NET *40 0.00294245
*CONN
*I *190:A2 I *D gf180mcu_fd_sc_mcu7t5v0__oai21_1
*I *169:ZN O *D gf180mcu_fd_sc_mcu7t5v0__clkinv_1
*CAP
1 *190:A2 0.000386529
2 *169:ZN 0.000386529
3 *190:A2 *164:I 0.000231555
4 *190:A2 *169:I 0.00153871
5 *190:A2 *170:I 2.36152e-06
6 *190:A2 *224:I 2.37622e-05
7 *190:A2 *60:230 0
8 *202:D *190:A2 7.55765e-06
9 *216:I *190:A2 0.000365445
*RES
1 *169:ZN *190:A2 23.22 
*END

*D_NET *41 0.00709499
*CONN
*I *192:A2 I *D gf180mcu_fd_sc_mcu7t5v0__oai21_1
*I *170:ZN O *D gf180mcu_fd_sc_mcu7t5v0__clkinv_1
*CAP
1 *192:A2 0.000583203
2 *170:ZN 0.000583203
3 *192:A2 *165:I 0.00199855
4 *192:A2 *170:I 0.0007585
5 *192:A2 *192:B 6.07407e-05
6 *192:A2 *60:206 6.57342e-05
7 *192:A2 *60:219 6.20708e-05
8 *178:A2 *192:A2 8.35241e-05
9 *182:A2 *192:A2 0.00186693
10 *203:D *192:A2 0.000842673
11 *205:D *192:A2 0.000183662
12 *206:I *192:A2 6.2083e-06
*RES
1 *170:ZN *192:A2 28.8 
*END

*D_NET *42 0.0032984
*CONN
*I *172:B I *D gf180mcu_fd_sc_mcu7t5v0__oai21_1
*I *171:ZN O *D gf180mcu_fd_sc_mcu7t5v0__nand2_1
*CAP
1 *172:B 0.000464256
2 *171:ZN 0.000464256
3 *172:B *171:A1 0.00144836
4 *172:B *173:A2 0.000405154
5 *172:B *180:B 0.000173876
6 *172:B *181:A2 0.000108207
7 *172:B *193:A2 7.55765e-06
8 *172:B *60:73 0.000126475
9 *172:A1 *172:B 0.000100258
*RES
1 *171:ZN *172:B 24.66 
*END

*D_NET *43 0.00500802
*CONN
*I *174:B I *D gf180mcu_fd_sc_mcu7t5v0__oai21_1
*I *173:ZN O *D gf180mcu_fd_sc_mcu7t5v0__nand2_1
*CAP
1 *174:B 0.000916251
2 *173:ZN 0.000916251
3 *174:B *162:I 0.000110174
4 *174:B *173:A2 0.000307099
5 *174:B *176:B 0.000116065
6 *174:B *180:B 7.20436e-05
7 *174:B *181:A2 1.3187e-05
8 *174:B *182:B 0.000240272
9 *174:B *193:A2 0.000918297
10 *174:B *194:CLK 0.000205535
11 *174:B *198:CLK 0.000271009
12 *174:B *54:10 1.32256e-06
13 *176:A2 *174:B 0.000679679
14 *182:A2 *174:B 2.78741e-05
15 *198:D *174:B 0.000212958
*RES
1 *173:ZN *174:B 27.81 
*END

*D_NET *44 0.00293522
*CONN
*I *176:B I *D gf180mcu_fd_sc_mcu7t5v0__oai21_1
*I *175:ZN O *D gf180mcu_fd_sc_mcu7t5v0__nand2_1
*CAP
1 *176:B 0.00020706
2 *175:ZN 0.00020706
3 *176:B *161:I 0.000293965
4 *176:B *162:I 0.000560191
5 *176:B *167:I 0.000343908
6 *176:B *198:CLK 6.30259e-05
7 *174:B *176:B 0.000116065
8 *180:A2 *176:B 0.000560191
9 *182:A2 *176:B 1.85882e-06
10 *198:D *176:B 0.000581894
*RES
1 *175:ZN *176:B 22.23 
*END

*D_NET *45 0.00403465
*CONN
*I *178:B I *D gf180mcu_fd_sc_mcu7t5v0__oai21_1
*I *177:ZN O *D gf180mcu_fd_sc_mcu7t5v0__nand2_1
*CAP
1 *178:B 0.000412609
2 *177:ZN 0.000412609
3 *178:B *177:A2 0.000805962
4 *178:B *178:A1 6.28541e-05
5 *178:B *179:A1 4.1822e-05
6 *178:B *179:A2 2.97784e-05
7 *178:B *60:73 0
8 *178:A2 *178:B 0.000341734
9 *196:D *178:B 0.000614919
10 *221:I *178:B 0.00131237
*RES
1 *177:ZN *178:B 24.93 
*END

*D_NET *46 0.00514118
*CONN
*I *180:B I *D gf180mcu_fd_sc_mcu7t5v0__oai21_1
*I *179:ZN O *D gf180mcu_fd_sc_mcu7t5v0__nand2_1
*CAP
1 *180:B 0.00087992
2 *179:ZN 0.00087992
3 *180:B *162:I 0.000685884
4 *180:B *171:A1 0
5 *180:B *173:A2 0
6 *180:B *176:A1 0
7 *180:B *179:A1 0.000208323
8 *180:B *194:CLK 0.000638823
9 *180:B *60:73 4.02002e-05
10 *180:B *61:27 0.000207343
11 *180:B *61:31 0
12 *172:A1 *180:B 0.000143429
13 *172:B *180:B 0.000173876
14 *174:B *180:B 7.20436e-05
15 *195:D *180:B 1.11402e-05
16 *205:D *180:B 0.00120028
*RES
1 *179:ZN *180:B 27.99 
*END

*D_NET *47 0.00400047
*CONN
*I *182:B I *D gf180mcu_fd_sc_mcu7t5v0__oai21_1
*I *181:ZN O *D gf180mcu_fd_sc_mcu7t5v0__nand2_1
*CAP
1 *182:B 0.000544329
2 *181:ZN 0.000544329
3 *182:B *161:I 0.000436478
4 *182:B *167:I 0.000436478
5 *182:B *181:A2 2.6442e-05
6 *182:B *194:CLK 0.000468276
7 *182:B *54:8 8.6014e-05
8 *182:B *54:10 2.88577e-05
9 *182:B *60:38 1.77416e-05
10 *174:B *182:B 0.000240272
11 *184:A2 *182:B 8.90719e-06
12 *198:D *182:B 0.00116235
*RES
1 *181:ZN *182:B 24.39 
*END

*D_NET *48 0.00116324
*CONN
*I *184:B I *D gf180mcu_fd_sc_mcu7t5v0__oai21_1
*I *183:ZN O *D gf180mcu_fd_sc_mcu7t5v0__nand2_1
*CAP
1 *184:B 0.00022386
2 *183:ZN 0.00022386
3 *184:B *183:A1 1.07374e-05
4 *184:B *183:A2 0.000167534
5 *184:B *184:A1 0.000222002
6 *184:B *185:A2 0.000221426
7 *184:B *60:269 9.38163e-05
*RES
1 *183:ZN *184:B 11.7 
*END

*D_NET *49 0.0011146
*CONN
*I *186:B I *D gf180mcu_fd_sc_mcu7t5v0__oai21_1
*I *185:ZN O *D gf180mcu_fd_sc_mcu7t5v0__nand2_1
*CAP
1 *186:B 8.71755e-05
2 *185:ZN 8.71755e-05
3 *186:B *54:43 5.59262e-05
4 *186:B *60:12 9.04462e-05
5 *186:B *60:269 0.000428433
6 *199:D *186:B 0.000365445
*RES
1 *185:ZN *186:B 10.62 
*END

*D_NET *50 0.00167805
*CONN
*I *188:B I *D gf180mcu_fd_sc_mcu7t5v0__oai21_1
*I *187:ZN O *D gf180mcu_fd_sc_mcu7t5v0__nand2_1
*CAP
1 *188:B 7.627e-05
2 *187:ZN 7.627e-05
3 *188:B *163:I 0.000146022
4 *188:B *187:A1 0.000283562
5 *178:A2 *188:B 0.000600587
6 *182:A2 *188:B 0.000495339
*RES
1 *187:ZN *188:B 11.25 
*END

*D_NET *51 0.000145534
*CONN
*I *190:B I *D gf180mcu_fd_sc_mcu7t5v0__oai21_1
*I *189:ZN O *D gf180mcu_fd_sc_mcu7t5v0__nand2_1
*CAP
1 *190:B 3.24734e-05
2 *189:ZN 3.24734e-05
3 *190:B *224:I 8.05869e-05
4 *202:D *190:B 0
*RES
1 *189:ZN *190:B 9.45 
*END

*D_NET *52 0.00350692
*CONN
*I *192:B I *D gf180mcu_fd_sc_mcu7t5v0__oai21_1
*I *191:ZN O *D gf180mcu_fd_sc_mcu7t5v0__nand2_1
*CAP
1 *192:B 0.000570452
2 *191:ZN 0.000570452
3 *192:B *163:I 0.000639514
4 *192:B *165:I 0.000769
5 *192:B *191:A2 0
6 *192:B *195:CLK 0.000496785
7 *192:B *198:CLK 1.86887e-06
8 *192:B *61:8 7.82853e-05
9 *178:A2 *192:B 0
10 *192:A2 *192:B 6.07407e-05
11 *203:D *192:B 0.000319821
*RES
1 *191:ZN *192:B 16.65 
*END

*D_NET *53 0.00196487
*CONN
*I *207:I I *D gf180mcu_fd_sc_mcu7t5v0__clkbuf_16
*I *208:I I *D gf180mcu_fd_sc_mcu7t5v0__clkbuf_16
*I *206:Z O *D gf180mcu_fd_sc_mcu7t5v0__clkbuf_16
*CAP
1 *207:I 0
2 *208:I 0.000106663
3 *206:Z 0.000344386
4 *53:13 0.000451049
5 *53:13 *166:I 0.000344636
6 *178:A2 *208:I 0.000185038
7 *178:A2 *53:13 0.000171658
8 *182:A2 *208:I 0.000185038
9 *182:A2 *53:13 0.000176401
*RES
1 *206:Z *53:13 16.92 
2 *53:13 *208:I 5.85 
3 *53:13 *207:I 4.5 
*END

*D_NET *54 0.015091
*CONN
*I *198:CLK I *D gf180mcu_fd_sc_mcu7t5v0__dffrnq_1
*I *200:CLK I *D gf180mcu_fd_sc_mcu7t5v0__dffrnq_1
*I *204:CLK I *D gf180mcu_fd_sc_mcu7t5v0__dffrnq_1
*I *194:CLK I *D gf180mcu_fd_sc_mcu7t5v0__dffrnq_1
*I *209:I I *D gf180mcu_fd_sc_mcu7t5v0__clkinv_2
*I *199:CLK I *D gf180mcu_fd_sc_mcu7t5v0__dffrnq_1
*I *207:Z O *D gf180mcu_fd_sc_mcu7t5v0__clkbuf_16
*CAP
1 *198:CLK 0.000953118
2 *200:CLK 1.0029e-05
3 *204:CLK 0.000623654
4 *194:CLK 0.000357676
5 *209:I 0
6 *199:CLK 0.000629667
7 *207:Z 0.000953118
8 *54:43 0.000794765
9 *54:10 0.000767252
10 *54:8 0.000533359
11 *54:4 0.000199179
12 *194:CLK *179:A1 0.00037349
13 *194:CLK *181:A2 7.50275e-06
14 *194:CLK *182:A1 0.000858907
15 *194:CLK *60:44 2.26194e-05
16 *194:CLK *60:50 1.31477e-06
17 *198:CLK *162:I 0.00012445
18 *198:CLK *164:I 0.000305689
19 *198:CLK *165:I 8.49143e-05
20 *198:CLK *195:CLK 2.32439e-05
21 *198:CLK *201:CLK 0.000370055
22 *198:CLK *55:6 0.000130249
23 *198:CLK *55:14 0.000414241
24 *198:CLK *61:8 0.000436469
25 *198:CLK *61:97 2.73782e-05
26 *199:CLK *171:A2 0.0001102
27 *204:CLK *161:I 2.36813e-05
28 *204:CLK *166:I 2.08993e-05
29 *204:CLK *181:A2 0
30 *204:CLK *200:RN 0.000370168
31 *204:CLK *204:RN 0.000454999
32 *204:CLK *60:167 7.6067e-06
33 *54:8 *171:A2 6.2083e-06
34 *54:8 *60:38 5.96002e-05
35 *54:10 *171:A2 0.000157363
36 *54:10 *193:A2 0
37 *54:43 *181:A2 0
38 *54:43 *60:12 9.3226e-06
39 *54:43 *60:23 3.21801e-05
40 *54:43 *60:44 8.18942e-05
41 *54:43 *60:156 6.61634e-06
42 *172:A1 *199:CLK 0.000105089
43 *174:A2 *194:CLK 1.22736e-05
44 *174:A2 *204:CLK 0.000415035
45 *174:B *194:CLK 0.000205535
46 *174:B *198:CLK 0.000271009
47 *174:B *54:10 1.32256e-06
48 *176:A2 *198:CLK 2.93836e-05
49 *176:B *198:CLK 6.30259e-05
50 *180:B *194:CLK 0.000638823
51 *182:A2 *198:CLK 0.000154597
52 *182:B *194:CLK 0.000468276
53 *182:B *54:8 8.6014e-05
54 *182:B *54:10 2.88577e-05
55 *184:A2 *200:CLK 9.04462e-05
56 *184:A2 *54:43 0.000567799
57 *186:B *54:43 5.59262e-05
58 *192:B *198:CLK 1.86887e-06
59 *198:D *194:CLK 0.000102923
60 *198:D *198:CLK 0.000291776
61 *199:D *199:CLK 2.36152e-06
62 *199:D *200:CLK 6.2979e-05
63 *199:D *54:43 0.000302466
64 *203:D *198:CLK 3.73774e-06
65 *204:D *204:CLK 0.000130638
66 *223:I *199:CLK 0.000655718
*RES
1 *207:Z *54:4 4.5 
2 *54:4 *54:8 5.13 
3 *54:8 *54:10 1.35 
4 *54:10 *199:CLK 13.86 
5 *54:10 *209:I 9 
6 *54:8 *194:CLK 14.67 
7 *54:4 *54:43 2.25 
8 *54:43 *204:CLK 18.72 
9 *54:43 *200:CLK 4.77 
10 *207:Z *198:CLK 27.81 
*END

*D_NET *55 0.0138219
*CONN
*I *202:CLK I *D gf180mcu_fd_sc_mcu7t5v0__dffrnq_1
*I *197:CLK I *D gf180mcu_fd_sc_mcu7t5v0__dffrnq_1
*I *196:CLK I *D gf180mcu_fd_sc_mcu7t5v0__dffrnq_1
*I *203:CLK I *D gf180mcu_fd_sc_mcu7t5v0__dffrnq_1
*I *201:CLK I *D gf180mcu_fd_sc_mcu7t5v0__dffrnq_1
*I *205:CLK I *D gf180mcu_fd_sc_mcu7t5v0__dffrnq_1
*I *195:CLK I *D gf180mcu_fd_sc_mcu7t5v0__dffrnq_1
*I *208:Z O *D gf180mcu_fd_sc_mcu7t5v0__clkbuf_16
*CAP
1 *202:CLK 0.000338671
2 *197:CLK 0
3 *196:CLK 0.000108869
4 *203:CLK 0.000135361
5 *201:CLK 0.000732977
6 *205:CLK 0
7 *195:CLK 0.000216032
8 *208:Z 6.5947e-05
9 *55:65 0.000217859
10 *55:63 0.000513608
11 *55:14 0.000374503
12 *55:6 0.000918732
13 *55:4 0.000162646
14 *195:CLK *163:I 0.000354719
15 *195:CLK *60:98 0.000271368
16 *195:CLK *61:10 0.000442919
17 *195:CLK *61:14 0.00115377
18 *196:CLK *166:I 0.00012328
19 *201:CLK *165:I 9.21301e-05
20 *201:CLK *168:I 0.000352047
21 *201:CLK *175:A1 1.68677e-06
22 *201:CLK *175:A2 0.00020507
23 *202:CLK *166:I 0.000179569
24 *202:CLK *203:RN 0.000181135
25 *202:CLK *224:I 0.000834753
26 *203:CLK *164:I 8.5452e-05
27 *55:65 *166:I 0.00010212
28 *55:65 *203:RN 6.05739e-05
29 *178:A2 *201:CLK 0.00053521
30 *182:A2 *201:CLK 0.000430467
31 *188:A2 *201:CLK 0.000352047
32 *192:B *195:CLK 0.000496785
33 *197:D *195:CLK 0
34 *197:D *201:CLK 3.44895e-05
35 *197:D *55:14 0.00014089
36 *198:D *201:CLK 1.32256e-06
37 *198:CLK *195:CLK 2.32439e-05
38 *198:CLK *201:CLK 0.000370055
39 *198:CLK *55:6 0.000130249
40 *198:CLK *55:14 0.000414241
41 *203:D *195:CLK 1.20833e-05
42 *203:D *203:CLK 6.62341e-05
43 *203:D *55:6 2.94847e-05
44 *203:D *55:14 0.000419758
45 *205:D *195:CLK 0.00172399
46 *206:I *201:CLK 0.000156172
47 *222:I *196:CLK 0.000203423
48 *222:I *55:65 5.5916e-05
*RES
1 *208:Z *55:4 4.5 
2 *55:4 *55:6 0.45 
3 *55:6 *55:14 11.16 
4 *55:14 *195:CLK 20.34 
5 *55:14 *205:CLK 4.5 
6 *55:6 *201:CLK 22.14 
7 *55:4 *203:CLK 5.67 
8 *208:Z *55:63 4.95 
9 *55:63 *55:65 1.17 
10 *55:65 *196:CLK 5.85 
11 *55:65 *197:CLK 4.5 
12 *55:63 *202:CLK 8.55 
*END

*D_NET *56 0.00281067
*CONN
*I *193:A2 I *D gf180mcu_fd_sc_mcu7t5v0__and2_1
*I *210:Z O *D gf180mcu_fd_sc_mcu7t5v0__dlyb_1
*CAP
1 *193:A2 0.000309442
2 *210:Z 0.000309442
3 *193:A2 *173:A2 0.00123042
4 *193:A2 *181:A2 3.55118e-05
5 *172:B *193:A2 7.55765e-06
6 *174:B *193:A2 0.000918297
7 *54:10 *193:A2 0
*RES
1 *210:Z *193:A2 23.04 
*END

*D_NET *57 0.000643236
*CONN
*I *183:A2 I *D gf180mcu_fd_sc_mcu7t5v0__nand2_1
*I *211:Z O *D gf180mcu_fd_sc_mcu7t5v0__dlyb_1
*CAP
1 *183:A2 0.000218009
2 *211:Z 0.000218009
3 *183:A2 *160:I 0
4 *183:A2 *185:A2 3.01487e-05
5 *183:A2 *60:12 5.60661e-06
6 *183:A2 *60:269 3.92905e-06
7 *184:B *183:A2 0.000167534
*RES
1 *211:Z *183:A2 10.8 
*END

*D_NET *58 0.00121678
*CONN
*I *185:A2 I *D gf180mcu_fd_sc_mcu7t5v0__nand2_1
*I *212:Z O *D gf180mcu_fd_sc_mcu7t5v0__dlyb_1
*CAP
1 *185:A2 0.000242853
2 *212:Z 0.000242853
3 *185:A2 *160:I 0
4 *185:A2 *204:RN 0.000394301
5 *185:A2 *60:10 5.39521e-05
6 *185:A2 *60:269 3.12451e-05
7 *183:A2 *185:A2 3.01487e-05
8 *184:B *185:A2 0.000221426
*RES
1 *212:Z *185:A2 20.79 
*END

*D_NET *59 0.000943364
*CONN
*I *187:A2 I *D gf180mcu_fd_sc_mcu7t5v0__nand2_1
*I *213:Z O *D gf180mcu_fd_sc_mcu7t5v0__dlyb_1
*CAP
1 *187:A2 0.000250161
2 *213:Z 0.000250161
3 *187:A2 *163:I 0.000143853
4 *187:A2 *165:I 3.22348e-05
5 *187:A2 *187:A1 0
6 *187:A2 *191:A2 0
7 *182:A2 *187:A2 0.000266954
*RES
1 *213:Z *187:A2 11.61 
*END

*D_NET *60 0.027197
*CONN
*I *185:A1 I *D gf180mcu_fd_sc_mcu7t5v0__nand2_1
*I *184:A1 I *D gf180mcu_fd_sc_mcu7t5v0__oai21_1
*I *187:A1 I *D gf180mcu_fd_sc_mcu7t5v0__nand2_1
*I *189:A1 I *D gf180mcu_fd_sc_mcu7t5v0__nand2_1
*I *190:A1 I *D gf180mcu_fd_sc_mcu7t5v0__oai21_1
*I *191:A1 I *D gf180mcu_fd_sc_mcu7t5v0__nand2_1
*I *188:A1 I *D gf180mcu_fd_sc_mcu7t5v0__oai21_1
*I *175:A1 I *D gf180mcu_fd_sc_mcu7t5v0__nand2_1
*I *173:A1 I *D gf180mcu_fd_sc_mcu7t5v0__nand2_1
*I *181:A1 I *D gf180mcu_fd_sc_mcu7t5v0__nand2_1
*I *186:A1 I *D gf180mcu_fd_sc_mcu7t5v0__oai21_1
*I *193:A1 I *D gf180mcu_fd_sc_mcu7t5v0__and2_1
*I *172:A2 I *D gf180mcu_fd_sc_mcu7t5v0__oai21_1
*I *180:A1 I *D gf180mcu_fd_sc_mcu7t5v0__oai21_1
*I *176:A1 I *D gf180mcu_fd_sc_mcu7t5v0__oai21_1
*I *192:A1 I *D gf180mcu_fd_sc_mcu7t5v0__oai21_1
*I *177:A1 I *D gf180mcu_fd_sc_mcu7t5v0__nand2_1
*I *182:A1 I *D gf180mcu_fd_sc_mcu7t5v0__oai21_1
*I *174:A1 I *D gf180mcu_fd_sc_mcu7t5v0__oai21_1
*I *179:A1 I *D gf180mcu_fd_sc_mcu7t5v0__nand2_1
*I *178:A1 I *D gf180mcu_fd_sc_mcu7t5v0__oai21_1
*I *171:A2 I *D gf180mcu_fd_sc_mcu7t5v0__nand2_1
*I *183:A1 I *D gf180mcu_fd_sc_mcu7t5v0__nand2_1
*I *214:Z O *D gf180mcu_fd_sc_mcu7t5v0__dlyb_1
*CAP
1 *185:A1 0
2 *184:A1 0.000128723
3 *187:A1 0.000174521
4 *189:A1 0.000123199
5 *190:A1 0
6 *191:A1 0
7 *188:A1 0
8 *175:A1 1.84734e-05
9 *173:A1 1.1678e-05
10 *181:A1 1.92414e-05
11 *186:A1 0
12 *193:A1 0
13 *172:A2 0
14 *180:A1 1.47222e-05
15 *176:A1 0.000124268
16 *192:A1 0.000137294
17 *177:A1 1.36405e-05
18 *182:A1 0.000164908
19 *174:A1 0
20 *179:A1 0.000125163
21 *178:A1 0.000342924
22 *171:A2 0.000212618
23 *183:A1 3.04092e-05
24 *214:Z 8.13161e-05
25 *60:269 0.00021948
26 *60:230 0.000755037
27 *60:226 0.000841162
28 *60:219 0.000241355
29 *60:206 0.000474445
30 *60:191 0.000451531
31 *60:178 0.000282418
32 *60:167 0.000443538
33 *60:156 0.000361131
34 *60:124 0.000298711
35 *60:104 0.000399415
36 *60:98 0.000757913
37 *60:73 0.000614421
38 *60:69 0.000674062
39 *60:50 0.000900727
40 *60:44 0.000952971
41 *60:38 0.000555056
42 *60:23 0.000401855
43 *60:12 0.000160113
44 *60:10 0.000230018
45 *171:A2 *171:A1 1.0415e-05
46 *171:A2 *181:A2 0.000197411
47 *173:A1 *167:I 2.36813e-05
48 *173:A1 *173:A2 3.55118e-05
49 *175:A1 *175:A2 3.55118e-05
50 *176:A1 *167:I 9.09805e-05
51 *176:A1 *61:27 0.000135666
52 *177:A1 *175:A2 1.27919e-05
53 *177:A1 *177:A2 3.01487e-05
54 *180:A1 *162:I 5.84241e-05
55 *181:A1 *161:I 9.84908e-05
56 *187:A1 *163:I 0.000237822
57 *187:A1 *165:I 0.00019431
58 *187:A1 *170:I 9.34988e-05
59 *187:A1 *191:A2 8.43202e-05
60 *192:A1 *61:10 1.23523e-05
61 *192:A1 *61:14 2.11204e-05
62 *60:10 *204:RN 9.4913e-06
63 *60:23 *181:A2 6.75874e-06
64 *60:38 *181:A2 0.000110548
65 *60:50 *161:I 0
66 *60:50 *167:I 3.44834e-06
67 *60:50 *61:48 2.59309e-05
68 *60:98 *61:14 0.000302284
69 *60:104 *162:I 0.000365445
70 *60:104 *175:A2 5.61832e-05
71 *60:104 *61:14 3.7972e-05
72 *60:124 *162:I 0.000849227
73 *60:124 *175:A2 0.000118332
74 *60:167 *166:I 0.000412384
75 *60:167 *181:A2 0.000712036
76 *60:178 *166:I 0.000364897
77 *60:191 *166:I 0.000573266
78 *60:206 *166:I 3.91562e-05
79 *60:219 *165:I 9.85004e-05
80 *60:219 *166:I 0
81 *60:219 *170:I 9.0531e-06
82 *60:219 *191:A2 3.98088e-05
83 *60:226 *165:I 0.00019593
84 *60:226 *191:A2 8.69474e-05
85 *60:230 *170:I 0.00035461
86 *172:A1 *60:50 0.000172257
87 *172:B *60:73 0.000126475
88 *174:A2 *181:A1 3.12451e-05
89 *174:A2 *182:A1 0.000363257
90 *174:A2 *60:50 0.000171194
91 *176:A2 *173:A1 9.84908e-05
92 *178:A2 *177:A1 9.85004e-05
93 *178:A2 *178:A1 0.000206958
94 *178:A2 *192:A1 1.24166e-05
95 *178:A2 *60:73 0
96 *178:A2 *60:98 0
97 *178:A2 *60:104 0.000138314
98 *178:B *178:A1 6.28541e-05
99 *178:B *179:A1 4.1822e-05
100 *178:B *60:73 0
101 *180:A2 *175:A1 9.84908e-05
102 *180:A2 *60:206 0.000466627
103 *180:B *176:A1 0
104 *180:B *179:A1 0.000208323
105 *180:B *60:73 4.02002e-05
106 *182:A2 *176:A1 0.000534585
107 *182:A2 *187:A1 0.000449809
108 *182:B *60:38 1.77416e-05
109 *183:A2 *60:12 5.60661e-06
110 *183:A2 *60:269 3.92905e-06
111 *184:A2 *60:38 0.000154648
112 *184:A2 *60:156 1.0415e-05
113 *184:A2 *60:167 5.02239e-05
114 *184:B *183:A1 1.07374e-05
115 *184:B *184:A1 0.000222002
116 *184:B *60:269 9.38163e-05
117 *185:A2 *60:10 5.39521e-05
118 *185:A2 *60:269 3.12451e-05
119 *186:A2 *60:167 1.0415e-05
120 *186:B *60:12 9.04462e-05
121 *186:B *60:269 0.000428433
122 *187:A2 *187:A1 0
123 *188:B *187:A1 0.000283562
124 *190:A2 *60:230 0
125 *192:A2 *60:206 6.57342e-05
126 *192:A2 *60:219 6.20708e-05
127 *194:D *178:A1 0
128 *194:D *179:A1 0.000365445
129 *194:D *182:A1 3.01487e-05
130 *194:CLK *179:A1 0.00037349
131 *194:CLK *182:A1 0.000858907
132 *194:CLK *60:44 2.26194e-05
133 *194:CLK *60:50 1.31477e-06
134 *195:D *176:A1 8.49208e-05
135 *195:CLK *60:98 0.000271368
136 *197:D *180:A1 8.49208e-05
137 *197:D *60:124 0.00015547
138 *198:D *60:44 4.37562e-05
139 *199:D *171:A2 0.000328539
140 *199:D *184:A1 2.61478e-05
141 *199:D *60:10 0.000455757
142 *199:D *60:269 6.16286e-05
143 *199:CLK *171:A2 0.0001102
144 *200:D *60:44 8.45601e-06
145 *201:CLK *175:A1 1.68677e-06
146 *204:D *60:44 6.65549e-05
147 *204:D *60:50 2.89427e-06
148 *204:D *60:156 6.1299e-06
149 *204:D *60:167 1.15771e-05
150 *204:CLK *60:167 7.6067e-06
151 *205:D *176:A1 0
152 *205:D *60:73 1.30221e-05
153 *205:D *60:98 8.70391e-05
154 *206:I *175:A1 2.89427e-06
155 *206:I *60:206 0.00024318
156 *216:I *189:A1 0.000153947
157 *216:I *60:230 7.41861e-05
158 *217:I *60:230 2.1644e-05
159 *221:I *192:A1 6.84825e-05
160 *54:8 *171:A2 6.2083e-06
161 *54:8 *60:38 5.96002e-05
162 *54:10 *171:A2 0.000157363
163 *54:43 *60:12 9.3226e-06
164 *54:43 *60:23 3.21801e-05
165 *54:43 *60:44 8.18942e-05
166 *54:43 *60:156 6.61634e-06
*RES
1 *214:Z *60:10 14.67 
2 *60:10 *60:12 0.45 
3 *60:12 *183:A1 4.77 
4 *60:12 *60:23 4.95 
5 *60:23 *171:A2 11.88 
6 *60:23 *60:38 5.67 
7 *60:38 *60:44 2.61 
8 *60:44 *60:50 4.23 
9 *60:50 *178:A1 7.74 
10 *60:50 *60:69 4.5 
11 *60:69 *60:73 6.39 
12 *60:73 *179:A1 6.93 
13 *60:73 *174:A1 4.5 
14 *60:73 *182:A1 7.38 
15 *60:69 *60:98 7.83 
16 *60:98 *60:104 7.02 
17 *60:104 *177:A1 9.27 
18 *60:104 *192:A1 10.17 
19 *60:98 *60:124 2.43 
20 *60:124 *176:A1 15.3 
21 *60:124 *180:A1 4.77 
22 *60:50 *172:A2 4.5 
23 *60:44 *193:A1 4.5 
24 *60:38 *60:156 0.27 
25 *60:156 *186:A1 4.5 
26 *60:156 *60:167 7.2 
27 *60:167 *181:A1 9.27 
28 *60:167 *60:178 0.99 
29 *60:178 *173:A1 9.27 
30 *60:178 *60:191 6.03 
31 *60:191 *175:A1 4.77 
32 *60:191 *60:206 7.65 
33 *60:206 *188:A1 9 
34 *60:206 *60:219 6.12 
35 *60:219 *191:A1 4.5 
36 *60:219 *60:226 0.63 
37 *60:226 *60:230 9.27 
38 *60:230 *190:A1 9 
39 *60:230 *189:A1 10.35 
40 *60:226 *187:A1 16.47 
41 *60:10 *60:269 1.8 
42 *60:269 *184:A1 6.03 
43 *60:269 *185:A1 4.5 
*END

*D_NET *61 0.0215812
*CONN
*I *203:RN I *D gf180mcu_fd_sc_mcu7t5v0__dffrnq_1
*I *198:RN I *D gf180mcu_fd_sc_mcu7t5v0__dffrnq_1
*I *201:RN I *D gf180mcu_fd_sc_mcu7t5v0__dffrnq_1
*I *202:RN I *D gf180mcu_fd_sc_mcu7t5v0__dffrnq_1
*I *197:RN I *D gf180mcu_fd_sc_mcu7t5v0__dffrnq_1
*I *196:RN I *D gf180mcu_fd_sc_mcu7t5v0__dffrnq_1
*I *195:RN I *D gf180mcu_fd_sc_mcu7t5v0__dffrnq_1
*I *205:RN I *D gf180mcu_fd_sc_mcu7t5v0__dffrnq_1
*I *200:RN I *D gf180mcu_fd_sc_mcu7t5v0__dffrnq_1
*I *204:RN I *D gf180mcu_fd_sc_mcu7t5v0__dffrnq_1
*I *199:RN I *D gf180mcu_fd_sc_mcu7t5v0__dffrnq_1
*I *194:RN I *D gf180mcu_fd_sc_mcu7t5v0__dffrnq_1
*I *215:Z O *D gf180mcu_fd_sc_mcu7t5v0__dlyb_1
*CAP
1 *203:RN 0.000440383
2 *198:RN 5.49557e-05
3 *201:RN 0.000198863
4 *202:RN 0
5 *197:RN 0
6 *196:RN 3.08292e-05
7 *195:RN 0
8 *205:RN 0
9 *200:RN 0.000277616
10 *204:RN 0.000703023
11 *199:RN 0
12 *194:RN 0.000137919
13 *215:Z 0.000251054
14 *61:122 0.00100182
15 *61:104 0.000729599
16 *61:97 0.000636022
17 *61:88 0.000136116
18 *61:86 0.000721013
19 *61:48 0.00235203
20 *61:31 0.00171524
21 *61:27 0.00064371
22 *61:14 0.000610861
23 *61:10 0.000340907
24 *61:8 0.000633411
25 *194:RN *162:I 5.71404e-05
26 *200:RN *162:I 9.85004e-05
27 *200:RN *166:I 5.88687e-05
28 *201:RN *170:I 0
29 *204:RN *160:I 0.000120971
30 *204:RN *181:A2 0
31 *61:27 *162:I 2.79678e-05
32 *61:48 *161:I 0
33 *61:104 *164:I 0
34 *61:104 *170:I 0
35 *172:A1 *61:31 1.14052e-05
36 *176:A1 *61:27 0.000135666
37 *176:A2 *200:RN 9.85004e-05
38 *180:B *61:27 0.000207343
39 *180:B *61:31 0
40 *182:A2 *61:27 4.71736e-05
41 *182:A2 *61:31 0.000159551
42 *182:A2 *61:48 8.42533e-05
43 *185:A2 *204:RN 0.000394301
44 *192:A1 *61:10 1.23523e-05
45 *192:A1 *61:14 2.11204e-05
46 *192:B *61:8 7.82853e-05
47 *195:D *61:27 0.000143259
48 *195:CLK *61:10 0.000442919
49 *195:CLK *61:14 0.00115377
50 *196:D *198:RN 6.92926e-05
51 *196:D *203:RN 1.84476e-05
52 *197:D *203:RN 0.000169515
53 *197:D *61:86 0
54 *197:D *61:122 0
55 *198:D *196:RN 7.96333e-06
56 *198:D *61:97 0.000649549
57 *198:D *61:104 0.000751703
58 *198:CLK *61:8 0.000436469
59 *198:CLK *61:97 2.73782e-05
60 *199:D *204:RN 0
61 *202:CLK *203:RN 0.000181135
62 *203:D *61:10 0
63 *203:D *61:86 0
64 *203:D *61:97 0.000169524
65 *203:D *61:104 0.000853483
66 *204:CLK *200:RN 0.000370168
67 *204:CLK *204:RN 0.000454999
68 *206:I *200:RN 0.000504233
69 *206:I *204:RN 0.000353557
70 *215:I *61:122 5.79501e-05
71 *217:I *201:RN 0
72 *217:I *61:104 0
73 *221:I *203:RN 0
74 *221:I *61:10 0
75 *221:I *61:86 0
76 *221:I *61:122 0.000106027
77 *222:I *198:RN 0.000294421
78 *222:I *203:RN 0.000700416
79 *55:65 *203:RN 6.05739e-05
80 *60:10 *204:RN 9.4913e-06
81 *60:50 *61:48 2.59309e-05
82 *60:98 *61:14 0.000302284
83 *60:104 *61:14 3.7972e-05
*RES
1 *215:Z *61:8 11.25 
2 *61:8 *61:10 1.71 
3 *61:10 *61:14 7.47 
4 *61:14 *194:RN 5.31 
5 *61:14 *61:27 7.56 
6 *61:27 *61:31 6.57 
7 *61:31 *199:RN 4.5 
8 *61:31 *61:48 18.63 
9 *61:48 *204:RN 15.48 
10 *61:48 *200:RN 12.6 
11 *61:27 *205:RN 9 
12 *61:10 *195:RN 9 
13 *61:8 *61:86 1.35 
14 *61:86 *61:88 4.5 
15 *61:88 *196:RN 4.77 
16 *61:88 *61:97 1.71 
17 *61:97 *197:RN 4.5 
18 *61:97 *61:104 5.31 
19 *61:104 *202:RN 4.5 
20 *61:104 *201:RN 5.76 
21 *61:86 *61:122 8.37 
22 *61:122 *198:RN 5.31 
23 *61:122 *203:RN 8.91 
*END

*D_NET *62 0.00294832
*CONN
*I *224:I I *D gf180mcu_fd_sc_mcu7t5v0__dlyb_1
*I *203:Q O *D gf180mcu_fd_sc_mcu7t5v0__dffrnq_1
*CAP
1 *224:I 0.000801144
2 *203:Q 0.000801144
3 *224:I *166:I 0.000183652
4 *224:I *189:A2 0.000140381
5 serial_out *224:I 9.8423e-06
6 *190:A2 *224:I 2.37622e-05
7 *190:B *224:I 8.05869e-05
8 *202:D *224:I 5.80906e-05
9 *202:CLK *224:I 0.000834753
10 *216:I *224:I 1.49624e-05
*RES
1 *203:Q *224:I 16.02 
*END

*D_NET *63 0.00095622
*CONN
*I *189:A2 I *D gf180mcu_fd_sc_mcu7t5v0__nand2_1
*I *216:Z O *D gf180mcu_fd_sc_mcu7t5v0__dlyb_1
*CAP
1 *189:A2 0.00036528
2 *216:Z 0.00036528
3 serial_out *189:A2 8.52804e-05
4 *224:I *189:A2 0.000140381
*RES
1 *216:Z *189:A2 12.06 
*END

*D_NET *64 0.00185284
*CONN
*I *191:A2 I *D gf180mcu_fd_sc_mcu7t5v0__nand2_1
*I *217:Z O *D gf180mcu_fd_sc_mcu7t5v0__dlyb_1
*CAP
1 *191:A2 0.000406825
2 *217:Z 0.000406825
3 *191:A2 *163:I 0.000622619
4 *191:A2 *164:I 1.39313e-05
5 *191:A2 *165:I 7.12749e-05
6 *191:A2 *169:I 0.000120293
7 *187:A1 *191:A2 8.43202e-05
8 *187:A2 *191:A2 0
9 *192:B *191:A2 0
10 *60:219 *191:A2 3.98088e-05
11 *60:226 *191:A2 8.69474e-05
*RES
1 *217:Z *191:A2 12.87 
*END

*D_NET *65 0.00328034
*CONN
*I *171:A1 I *D gf180mcu_fd_sc_mcu7t5v0__nand2_1
*I *218:Z O *D gf180mcu_fd_sc_mcu7t5v0__dlyb_1
*CAP
1 *171:A1 0.00061632
2 *218:Z 0.00061632
3 *171:A1 *173:A2 0.000153569
4 *171:A1 *181:A2 8.12023e-06
5 *171:A2 *171:A1 1.0415e-05
6 *172:A1 *171:A1 1.77471e-05
7 *172:B *171:A1 0.00144836
8 *180:B *171:A1 0
9 *199:D *171:A1 0.000260146
10 *210:I *171:A1 0
11 *218:I *171:A1 0.000143302
12 *219:I *171:A1 6.03879e-06
*RES
1 *218:Z *171:A1 16.29 
*END

*D_NET *66 0.00621816
*CONN
*I *173:A2 I *D gf180mcu_fd_sc_mcu7t5v0__nand2_1
*I *219:Z O *D gf180mcu_fd_sc_mcu7t5v0__dlyb_1
*CAP
1 *173:A2 0.000978688
2 *219:Z 0.000978688
3 *173:A2 *167:I 0.000882033
4 *171:A1 *173:A2 0.000153569
5 *172:A1 *173:A2 0
6 *172:B *173:A2 0.000405154
7 *173:A1 *173:A2 3.55118e-05
8 *174:A2 *173:A2 0.000703927
9 *174:B *173:A2 0.000307099
10 *176:A2 *173:A2 0.000339626
11 *180:B *173:A2 0
12 *182:A2 *173:A2 0.000203447
13 *193:A2 *173:A2 0.00123042
*RES
1 *219:Z *173:A2 29.79 
*END

*D_NET *67 0.0029083
*CONN
*I *175:A2 I *D gf180mcu_fd_sc_mcu7t5v0__nand2_1
*I *220:Z O *D gf180mcu_fd_sc_mcu7t5v0__dlyb_1
*CAP
1 *175:A2 0.00099155
2 *220:Z 0.00099155
3 *175:A2 *162:I 3.60921e-05
4 *175:A2 *177:A2 7.61255e-05
5 *175:A1 *175:A2 3.55118e-05
6 *177:A1 *175:A2 1.27919e-05
7 *178:A2 *175:A2 0.000142262
8 *180:A2 *175:A2 0.000205716
9 *197:D *175:A2 3.71185e-05
10 *201:CLK *175:A2 0.00020507
11 *206:I *175:A2 0
12 *60:104 *175:A2 5.61832e-05
13 *60:124 *175:A2 0.000118332
*RES
1 *220:Z *175:A2 16.83 
*END

*D_NET *68 0.00185681
*CONN
*I *177:A2 I *D gf180mcu_fd_sc_mcu7t5v0__nand2_1
*I *221:Z O *D gf180mcu_fd_sc_mcu7t5v0__dlyb_1
*CAP
1 *177:A2 0.000139786
2 *221:Z 0.000139786
3 *175:A2 *177:A2 7.61255e-05
4 *177:A1 *177:A2 3.01487e-05
5 *178:A2 *177:A2 4.5501e-05
6 *178:B *177:A2 0.000805962
7 *196:D *177:A2 0.0006195
*RES
1 *221:Z *177:A2 20.7 
*END

*D_NET *69 0.00607497
*CONN
*I *179:A2 I *D gf180mcu_fd_sc_mcu7t5v0__nand2_1
*I *222:Z O *D gf180mcu_fd_sc_mcu7t5v0__dlyb_1
*CAP
1 *179:A2 0.000995324
2 *222:Z 0.000995324
3 *178:B *179:A2 2.97784e-05
4 *196:D *179:A2 0.00403307
5 *215:I *179:A2 2.14747e-05
*RES
1 *222:Z *179:A2 29.88 
*END

*D_NET *70 0.0035669
*CONN
*I *181:A2 I *D gf180mcu_fd_sc_mcu7t5v0__nand2_1
*I *223:Z O *D gf180mcu_fd_sc_mcu7t5v0__dlyb_1
*CAP
1 *181:A2 0.000637638
2 *223:Z 0.000637638
3 *171:A1 *181:A2 8.12023e-06
4 *171:A2 *181:A2 0.000197411
5 *172:B *181:A2 0.000108207
6 *174:B *181:A2 1.3187e-05
7 *182:B *181:A2 2.6442e-05
8 *184:A2 *181:A2 0.000464373
9 *193:A2 *181:A2 3.55118e-05
10 *194:CLK *181:A2 7.50275e-06
11 *199:D *181:A2 0.000601531
12 *204:RN *181:A2 0
13 *204:CLK *181:A2 0
14 *54:43 *181:A2 0
15 *60:23 *181:A2 6.75874e-06
16 *60:38 *181:A2 0.000110548
17 *60:167 *181:A2 0.000712036
*RES
1 *223:Z *181:A2 24.48 
*END

*D_NET *71 0.00200403
*CONN
*I *160:I I *D gf180mcu_fd_sc_mcu7t5v0__clkinv_1
*I *204:Q O *D gf180mcu_fd_sc_mcu7t5v0__dffrnq_1
*CAP
1 *160:I 0.000554525
2 *204:Q 0.000554525
3 *183:A2 *160:I 0
4 *185:A2 *160:I 0
5 *199:D *160:I 0.000183662
6 *204:RN *160:I 0.000120971
7 *211:I *160:I 3.98088e-05
8 *212:I *160:I 0.000284991
9 *214:I *160:I 0.000183652
10 *223:I *160:I 8.18942e-05
*RES
1 *204:Q *160:I 14.31 
*END

*D_NET *72 0.0024634
*CONN
*I *170:I I *D gf180mcu_fd_sc_mcu7t5v0__clkinv_1
*I *202:Q O *D gf180mcu_fd_sc_mcu7t5v0__dffrnq_1
*CAP
1 *170:I 0.000406116
2 *202:Q 0.000406116
3 *170:I *163:I 5.16037e-05
4 *170:I *164:I 0.00036672
5 *187:A1 *170:I 9.34988e-05
6 *190:A2 *170:I 2.36152e-06
7 *192:A2 *170:I 0.0007585
8 *201:RN *170:I 0
9 *206:I *170:I 1.48164e-05
10 *60:219 *170:I 9.0531e-06
11 *60:230 *170:I 0.00035461
12 *61:104 *170:I 0
*RES
1 *202:Q *170:I 22.32 
*END

*D_NET *73 0.00369828
*CONN
*I *161:I I *D gf180mcu_fd_sc_mcu7t5v0__clkinv_1
*I *205:Q O *D gf180mcu_fd_sc_mcu7t5v0__dffrnq_1
*CAP
1 *161:I 0.000637155
2 *205:Q 0.000637155
3 *161:I *167:I 0.000529528
4 *174:A2 *161:I 0.00104183
5 *176:B *161:I 0.000293965
6 *181:A1 *161:I 9.84908e-05
7 *182:B *161:I 0.000436478
8 *204:CLK *161:I 2.36813e-05
9 *60:50 *161:I 0
10 *61:48 *161:I 0
*RES
1 *205:Q *161:I 16.2 
*END

*D_NET *74 0.00579083
*CONN
*I *162:I I *D gf180mcu_fd_sc_mcu7t5v0__clkinv_1
*I *194:Q O *D gf180mcu_fd_sc_mcu7t5v0__dffrnq_1
*CAP
1 *162:I 0.000749547
2 *194:Q 0.000749547
3 *162:I *167:I 0
4 *174:B *162:I 0.000110174
5 *175:A2 *162:I 3.60921e-05
6 *176:A2 *162:I 0.000317599
7 *176:B *162:I 0.000560191
8 *180:A1 *162:I 5.84241e-05
9 *180:A2 *162:I 0.00100064
10 *180:B *162:I 0.000685884
11 *194:RN *162:I 5.71404e-05
12 *198:CLK *162:I 0.00012445
13 *200:RN *162:I 9.85004e-05
14 *60:104 *162:I 0.000365445
15 *60:124 *162:I 0.000849227
16 *61:27 *162:I 2.79678e-05
*RES
1 *194:Q *162:I 19.62 
*END

*D_NET *75 0.00731503
*CONN
*I *163:I I *D gf180mcu_fd_sc_mcu7t5v0__clkinv_1
*I *195:Q O *D gf180mcu_fd_sc_mcu7t5v0__dffrnq_1
*CAP
1 *163:I 0.000529612
2 *195:Q 0.000529612
3 *163:I *164:I 0.00339105
4 *163:I *165:I 3.54565e-05
5 *170:I *163:I 5.16037e-05
6 *178:A2 *163:I 0.000633147
7 *187:A1 *163:I 0.000237822
8 *187:A2 *163:I 0.000143853
9 *188:B *163:I 0.000146022
10 *191:A2 *163:I 0.000622619
11 *192:B *163:I 0.000639514
12 *195:CLK *163:I 0.000354719
*RES
1 *195:Q *163:I 29.25 
*END

*D_NET *76 0.00664167
*CONN
*I *164:I I *D gf180mcu_fd_sc_mcu7t5v0__clkinv_1
*I *196:Q O *D gf180mcu_fd_sc_mcu7t5v0__dffrnq_1
*CAP
1 *164:I 0.00101971
2 *196:Q 0.00101971
3 *164:I *165:I 8.49143e-05
4 *164:I *168:I 6.68757e-05
5 *164:I *169:I 3.06929e-05
6 *163:I *164:I 0.00339105
7 *170:I *164:I 0.00036672
8 *180:A2 *164:I 2.53811e-05
9 *190:A2 *164:I 0.000231555
10 *191:A2 *164:I 1.39313e-05
11 *198:CLK *164:I 0.000305689
12 *203:CLK *164:I 8.5452e-05
13 *61:104 *164:I 0
*RES
1 *196:Q *164:I 29.61 
*END

*D_NET *77 0.00604147
*CONN
*I *165:I I *D gf180mcu_fd_sc_mcu7t5v0__clkinv_1
*I *197:Q O *D gf180mcu_fd_sc_mcu7t5v0__dffrnq_1
*CAP
1 *165:I 0.000543449
2 *197:Q 0.000543449
3 *163:I *165:I 3.54565e-05
4 *164:I *165:I 8.49143e-05
5 *182:A2 *165:I 0.000862157
6 *187:A1 *165:I 0.00019431
7 *187:A2 *165:I 3.22348e-05
8 *191:A2 *165:I 7.12749e-05
9 *192:A2 *165:I 0.00199855
10 *192:B *165:I 0.000769
11 *197:D *165:I 0.000435201
12 *198:CLK *165:I 8.49143e-05
13 *201:CLK *165:I 9.21301e-05
14 *60:219 *165:I 9.85004e-05
15 *60:226 *165:I 0.00019593
*RES
1 *197:Q *165:I 27.63 
*END

*D_NET *78 0.00777082
*CONN
*I *166:I I *D gf180mcu_fd_sc_mcu7t5v0__clkinv_1
*I *198:Q O *D gf180mcu_fd_sc_mcu7t5v0__dffrnq_1
*CAP
1 *166:I 0.00260824
2 *198:Q 0.00260824
3 *196:CLK *166:I 0.00012328
4 *200:RN *166:I 5.88687e-05
5 *202:CLK *166:I 0.000179569
6 *204:CLK *166:I 2.08993e-05
7 *206:I *166:I 0
8 *217:I *166:I 0.000103772
9 *222:I *166:I 4.78445e-05
10 *224:I *166:I 0.000183652
11 *53:13 *166:I 0.000344636
12 *55:65 *166:I 0.00010212
13 *60:167 *166:I 0.000412384
14 *60:178 *166:I 0.000364897
15 *60:191 *166:I 0.000573266
16 *60:206 *166:I 3.91562e-05
17 *60:219 *166:I 0
*RES
1 *198:Q *166:I 37.71 
*END

*D_NET *79 0.0047475
*CONN
*I *167:I I *D gf180mcu_fd_sc_mcu7t5v0__clkinv_1
*I *199:Q O *D gf180mcu_fd_sc_mcu7t5v0__dffrnq_1
*CAP
1 *167:I 0.00112844
2 *199:Q 0.00112844
3 *161:I *167:I 0.000529528
4 *162:I *167:I 0
5 *173:A1 *167:I 2.36813e-05
6 *173:A2 *167:I 0.000882033
7 *176:A1 *167:I 9.09805e-05
8 *176:A2 *167:I 5.32082e-05
9 *176:B *167:I 0.000343908
10 *182:B *167:I 0.000436478
11 *195:D *167:I 1.36713e-05
12 *206:I *167:I 0.000113682
13 *60:50 *167:I 3.44834e-06
*RES
1 *199:Q *167:I 27.81 
*END

*D_NET *80 0.00104886
*CONN
*I *168:I I *D gf180mcu_fd_sc_mcu7t5v0__clkinv_1
*I *200:Q O *D gf180mcu_fd_sc_mcu7t5v0__dffrnq_1
*CAP
1 *168:I 0.00019658
2 *200:Q 0.00019658
3 *164:I *168:I 6.68757e-05
4 *178:A2 *168:I 1.19491e-05
5 *180:A2 *168:I 8.01793e-05
6 *188:A2 *168:I 0.00013423
7 *201:CLK *168:I 0.000352047
8 *206:I *168:I 1.0415e-05
*RES
1 *200:Q *168:I 11.34 
*END

*D_NET *81 0.00299527
*CONN
*I *169:I I *D gf180mcu_fd_sc_mcu7t5v0__clkinv_1
*I *201:Q O *D gf180mcu_fd_sc_mcu7t5v0__dffrnq_1
*CAP
1 *169:I 0.00036909
2 *201:Q 0.00036909
3 *164:I *169:I 3.06929e-05
4 *190:A2 *169:I 0.00153871
5 *191:A2 *169:I 0.000120293
6 *216:I *169:I 0.000283695
7 *217:I *169:I 0.000283695
*RES
1 *201:Q *169:I 22.86 
*END
